LAMMPS data file via write_data, version 10 Sep 2025, timestep = 25000, units = real

1500 atoms
2 atom types
1000 bonds
1 bond types
500 angles
1 angle types

-60 60 xlo xhi
-60 60 ylo yhi
-60 60 zlo zhi

Masses

1 15.9994
2 12.011

Atoms # full

206 69 2 0.6512 -42.365155862132674 -56.781723352748934 -54.38717705538353 0 0 1
205 69 1 -0.3256 -43.223656685281114 -56.41422014544993 -55.056600399782006 0 0 1
413 138 2 0.6512 -36.17566229881634 -41.94522386475781 -58.85718537129918 0 0 1
212 71 2 0.6512 -8.286722017168328 -59.707137161687925 -56.12729096391031 0 0 0
727 243 1 -0.3256 29.35974190965763 -57.08697808285808 -57.062833046242254 0 0 1
729 243 1 -0.3256 30.888742556940297 -55.38814900584668 -57.30191913590491 0 0 1
728 243 2 0.6512 30.124318178001396 -56.237639983391865 -57.182558149446166 0 0 1
150 50 1 -0.3256 -18.47589368470977 -45.16695893710247 -53.31054128112706 0 0 0
148 50 1 -0.3256 -19.206923113007914 -43.61759456430576 -54.842553841403436 0 0 0
149 50 2 0.6512 -18.84000135228991 -44.39214328896645 -54.0768885643896 0 0 0
229 77 1 -0.3256 -14.331851801397711 -42.55124550662899 -55.7399197532855 0 0 0
230 77 2 0.6512 -14.941534145805226 -43.51315226445453 -55.58711210581295 0 0 0
231 77 1 -0.3256 -15.551139662621013 -44.475129964545744 -55.43282082908876 0 0 0
1071 357 1 -0.3256 -4.914572972622451 -39.44712352291754 -54.84002694573822 0 1 0
1070 357 2 0.6512 -5.126305503264925 -39.890181740286344 -55.88407094301048 0 1 0
1069 357 1 -0.3256 -5.32766777608457 -40.3243366081988 -56.93420054909607 0 1 0
693 231 1 -0.3256 -42.04884123386141 -7.761488146905099 -56.864463100510704 1 0 1
640 214 1 -0.3256 54.057609683761086 -5.675021346197466 -3.8452749382458995 0 0 0
295 99 1 -0.3256 33.822031586408464 -39.98107597259444 -55.784237871243974 0 0 0
296 99 2 0.6512 33.95028187519143 -40.617730106036284 -56.73194919539078 0 0 0
297 99 1 -0.3256 34.08019717118744 -41.253543294898606 -57.68015785095267 0 0 0
65 22 2 0.6512 38.017381848384325 -41.71379793936784 -56.30375274544984 0 0 0
66 22 1 -0.3256 37.81989229744739 -41.149057796499555 -55.32278897006972 0 0 0
64 22 1 -0.3256 38.21390892717626 -42.27791843509267 -57.28509372456838 0 0 0
425 142 2 0.6512 -39.58124899871297 -39.079518687937664 -56.32386226035115 0 0 1
424 142 1 -0.3256 -39.88183637202238 -39.055365949774846 -55.215161247438935 0 0 1
426 142 1 -0.3256 -39.280031787700466 -39.10407208682024 -57.43242015627114 0 0 1
1409 470 2 0.6512 -7.819259284185132 -35.18633470361513 -51.8314478521142 0 0 2
1408 470 1 -0.3256 -7.879096979312088 -36.26581344150787 -51.775148963357125 0 0 2
1410 470 1 -0.3256 -7.799253684077998 -34.090068833496225 -51.775065362290135 0 0 2
725 242 2 0.6512 -5.144652899830653 -31.769656889238533 -52.05464079717137 0 0 1
726 242 1 -0.3256 -4.610923259883041 -32.786664319521634 -52.02934657013607 0 0 1
724 242 1 -0.3256 -5.699682278840486 -30.763653545434675 -52.069953611742704 0 0 1
471 157 1 -0.3256 -20.623882521909938 -24.938318451445188 -58.15574175945009 0 0 1
113 38 2 0.6512 -20.57240848631426 -21.911425947329764 -56.56183303936666 0 0 0
470 157 2 0.6512 -20.64741787610441 -25.07377168257277 -59.29661382854633 0 0 1
112 38 1 -0.3256 -19.50773522607393 -22.103152675860617 -56.94948026544413 0 0 0
114 38 1 -0.3256 -21.63706703305175 -21.717130130206378 -56.17588899124074 0 0 0
412 138 1 -0.3256 -35.260470769782394 -42.12368834861243 -58.18537039049805 0 0 1
55 19 1 -0.3256 16.28003168384466 -30.56600722326476 -55.78034588579268 -2 0 0
57 19 1 -0.3256 17.8040901353879 -32.20995833174907 -55.25807000775287 -2 0 0
56 19 2 0.6512 17.040490121439888 -31.3858691128151 -55.507395403665235 -2 0 0
286 96 1 -0.3256 47.72604309105051 -20.79449743660666 -49.35997973045408 0 0 0
287 96 2 0.6512 48.14949315232235 -21.24363181832515 -50.32886928398746 0 0 0
180 60 1 -0.3256 -6.4398136775653425 -9.363121642978458 -57.3822954203462 0 0 0
305 102 2 0.6512 47.71760618883424 -14.473329735266843 -59.90412545896792 0 0 0
641 214 2 0.6512 54.50738263067227 -6.667390611445428 -3.480338538256516 0 0 0
138 46 1 -0.3256 46.41147631342717 -21.135063649131762 -55.37702859073231 0 0 0
137 46 2 0.6512 45.852388903037436 -20.49246626900559 -56.14828247175778 0 0 0
136 46 1 -0.3256 45.28862634711374 -19.84685558395475 -56.91429624543885 0 0 0
304 102 1 -0.3256 47.35017016994995 -13.478622773231653 -59.461847988345774 0 0 0
225 75 1 -0.3256 51.20415875460435 -17.495546344315102 -58.256409996089126 0 0 0
223 75 1 -0.3256 50.34079981636327 -15.58925571202504 -57.30652242425786 0 0 0
224 75 2 0.6512 50.77244881557285 -16.542395134694292 -57.781833535044605 0 0 0
46 16 1 -0.3256 -55.34392091877779 -2.4030189973529037 -55.68168710006852 0 0 0
47 16 2 0.6512 -55.31250690779337 -1.9990577472564286 -56.756871561051106 0 0 0
48 16 1 -0.3256 -55.28142773729174 -1.5960707520618216 -57.83247343914532 0 0 0
316 106 1 -0.3256 59.681716332520054 -5.104388290012069 -57.917507170112216 -1 0 0
317 106 2 0.6512 59.89663579428269 -4.642900389403226 -58.94759617857888 -1 0 0
691 231 1 -0.3256 -42.277658435922945 -8.344703282486647 -59.0768129541812 1 0 1
692 231 2 0.6512 -42.16279741948272 -8.053799031577288 -57.97047368721237 1 0 1
130 44 1 -0.3256 -11.573547904426247 -3.61797297296725 -51.8248187763282 0 0 0
131 44 2 0.6512 -12.43482202686245 -4.363890720447581 -51.97502566386342 0 0 0
132 44 1 -0.3256 -13.29909059783974 -5.106603417422458 -52.1235709884131 0 0 0
10 4 1 -0.3256 -7.742826650599108 -6.102688478772748 -53.72219410543868 0 0 0
11 4 2 0.6512 -8.797427931325876 -6.0919555388549185 -53.26571521909524 0 0 0
12 4 1 -0.3256 -9.852178768151951 -6.0819404040187575 -52.80920639575976 0 0 0
179 60 2 0.6512 -7.355226672900425 -9.522290529628705 -56.70636257198103 0 0 0
178 60 1 -0.3256 -8.271191151563578 -9.681300814700803 -56.03094980014006 0 0 0
1098 366 1 -0.3256 24.984916607150407 -9.174003531900247 -56.120796110786294 -1 0 0
1097 366 2 0.6512 24.726267158464307 -9.088390249290683 -57.23788561804535 -1 0 0
1096 366 1 -0.3256 24.47250989933318 -9.005499223495704 -58.35626394950871 -1 0 0
265 89 1 -0.3256 -29.934657153330917 -56.70508232858705 -33.52016085861675 0 0 0
897 299 1 -0.3256 -49.017404050206345 -0.4438645403241336 -18.759381314985095 1 1 0
318 106 1 -0.3256 -59.8887636029308 -4.1815963346809895 -59.97779469737166 0 0 0
776 259 2 0.6512 -5.362356059606623 -8.920714681070164 -2.9421157577333314 0 0 0
895 299 1 -0.3256 -50.317350919120926 -0.5695244677286647 -16.865776091727636 1 1 0
1445 482 2 0.6512 50.12088818406261 -0.16987901775068656 -25.544664610376575 0 0 1
1446 482 1 -0.3256 49.406973542516795 -0.6080730363541232 -24.753036230235878 0 0 1
257 86 2 0.6512 13.895134730300667 -57.04889766028987 -44.91327250519832 0 0 0
258 86 1 -0.3256 14.284940792705777 -57.010004630780244 -43.83099417584597 0 0 0
256 86 1 -0.3256 13.483925740017552 -57.096906568532106 -45.98246689920146 0 0 0
499 167 1 -0.3256 16.743509254866044 -56.809381638314505 -45.41301616322685 1 -2 -1
500 167 2 0.6512 17.05728591838771 -57.46299748694474 -44.47479221777206 1 -2 -1
1052 351 2 0.6512 32.54381152510604 -52.449199944092975 -50.16566603209794 0 1 0
1053 351 1 -0.3256 33.438017133821276 -52.84182399119901 -50.771027041375376 0 1 0
1051 351 1 -0.3256 31.651318845863628 -52.05468571939747 -49.558835340642645 0 1 0
1021 341 1 -0.3256 43.3315814877403 -53.57201954810921 -43.64151067709661 0 1 0
1023 341 1 -0.3256 45.604289839514365 -53.65396616071031 -43.3047855801275 0 1 0
1022 341 2 0.6512 44.4679068103854 -53.61344427292891 -43.47416790344759 0 1 0
108 36 1 -0.3256 48.53756421400689 -51.30925647473613 -43.2587504054702 0 0 0
1186 396 1 -0.3256 46.62248113276218 -49.53619202611092 -41.662919496061036 0 1 1
1187 396 2 0.6512 45.812301922552734 -49.85764588211886 -42.4113541820917 0 1 1
106 36 1 -0.3256 48.10514144296491 -51.73926438799395 -45.47386366987142 0 0 0
107 36 2 0.6512 48.32196421482147 -51.525578548769666 -44.36621939802555 0 0 0
1188 396 1 -0.3256 45.0038009850729 -50.183554995305165 -43.160415017385546 0 1 1
898 300 1 -0.3256 49.538757747401554 -57.074464367176574 -42.34320526938501 0 1 0
900 300 1 -0.3256 48.160759094357154 -56.14055623379184 -43.92787121237371 0 1 0
899 300 2 0.6512 48.849394364101784 -56.605204049886716 -43.133978805198836 0 1 0
449 150 2 0.6512 -27.537213878550407 -48.07128181055328 -41.607267000655526 1 0 2
450 150 1 -0.3256 -28.63723980255889 -47.748628790668945 -41.5558522001876 1 0 2
448 150 1 -0.3256 -26.437361663484634 -48.40084502462582 -41.63786235717795 1 0 2
501 167 1 -0.3256 17.398564356618476 -58.17464220901085 -43.4793597936979 1 -2 -1
221 74 2 0.6512 -34.864183583340115 -39.37970518653135 -43.52015510875809 0 0 0
222 74 1 -0.3256 -35.887501344045695 -39.85137049159045 -43.295600819589474 0 0 0
395 132 2 0.6512 -30.564524997382772 -31.958395094395776 -47.80537172814092 0 0 0
220 74 1 -0.3256 -33.846256435323525 -38.89566904427587 -43.74421155310755 0 0 0
396 132 1 -0.3256 -30.005051737518993 -31.346156534648546 -48.60056917213026 0 0 0
394 132 1 -0.3256 -31.124878036654223 -32.56975773951713 -47.0100088540084 0 0 0
253 85 1 -0.3256 -28.54337953712997 -30.131593399491493 -45.01296937614764 0 0 0
254 85 2 0.6512 -27.69782586242157 -30.78913930708919 -44.597079490547166 0 0 0
255 85 1 -0.3256 -26.851750828832753 -31.448926307511 -44.185191736356714 0 0 0
87 29 1 -0.3256 -10.310540958393393 -37.684969344326134 -49.017181487724145 0 0 0
273 91 1 -0.3256 -14.549696308253115 -31.16626978190181 -51.27440425917309 0 0 0
145 49 1 -0.3256 -14.310743525559406 -31.371990050369018 -42.72267808502461 0 0 0
271 91 1 -0.3256 -13.957265132746066 -33.31693038332568 -51.82359244293921 0 0 0
272 91 2 0.6512 -14.246808593205536 -32.23452192623065 -51.570184459622816 0 0 0
146 49 2 0.6512 -14.753849515989085 -31.586448955053687 -41.683895356762186 0 0 0
147 49 1 -0.3256 -15.197508041345332 -31.803073552931203 -40.64571044015676 0 0 0
85 29 1 -0.3256 -9.152843062434544 -39.66926496906346 -48.93169238806001 0 0 0
86 29 2 0.6512 -9.721143172944506 -38.67162960906509 -48.9871505961598 0 0 0
685 229 1 -0.3256 0.9051373819327074 -31.60021611565387 -51.43787138300884 0 0 0
687 229 1 -0.3256 -0.6616421851658016 -31.437949768792762 -53.11318771223769 0 0 0
686 229 2 0.6512 0.1258517368920429 -31.51647541625254 -52.27905281091661 0 0 0
246 82 1 -0.3256 43.18510037078313 -30.201331867528054 -39.33735420320745 0 0 0
216 72 1 -0.3256 -57.28567715074232 -19.964273089981017 -52.84127762635826 1 0 0
334 112 1 -0.3256 -13.433961883281286 -27.74052839482784 -43.00652452592363 0 0 0
335 112 2 0.6512 -13.319787397533506 -26.796903718487105 -43.65174471807841 0 0 0
336 112 1 -0.3256 -13.207526007624667 -25.85120607806257 -44.294404679216555 0 0 0
368 123 2 0.6512 -14.688761520514385 -22.734200178366784 -43.06927514957301 0 0 0
369 123 1 -0.3256 -14.642519338376138 -22.800509417681635 -41.922427541410364 0 0 0
367 123 1 -0.3256 -14.73609666113237 -22.669921827412498 -44.21573631659805 0 0 0
364 122 1 -0.3256 5.879532829947832 -26.195421930760123 -43.54924575279589 0 0 0
366 122 1 -0.3256 3.9901453028940677 -27.498017644970627 -43.6846491930298 0 0 0
365 122 2 0.6512 4.936423753431288 -26.849147256872797 -43.616742467175754 0 0 0
399 133 1 -0.3256 26.930019074610932 -24.743728419378364 -51.26987611535211 -1 0 0
398 133 2 0.6512 25.819421450039716 -24.60651239998992 -50.99599668423833 -1 0 0
397 133 1 -0.3256 24.708015051605848 -24.470843814256302 -50.724297223558224 -1 0 0
288 96 1 -0.3256 48.570351348357505 -21.693842837831458 -51.29871954778037 0 0 0
244 82 1 -0.3256 44.659171620246944 -29.587658786216963 -40.989410458619524 0 0 0
245 82 2 0.6512 43.92306570711986 -29.895943295927093 -40.16245911108405 0 0 0
120 40 1 -0.3256 -58.19279772495697 -17.878231036613123 -41.12532674198113 0 0 0
119 40 2 0.6512 -59.32736002869843 -18.05447433637641 -41.170815116278526 0 0 0
118 40 1 -0.3256 59.537970369583206 -18.23054827118442 -41.21722519696251 -1 0 0
215 72 2 0.6512 -56.58868643448415 -20.847015559441612 -53.083013060082145 1 0 0
214 72 1 -0.3256 -55.89024409255246 -21.728838594452014 -53.32338258251349 1 0 0
1238 413 2 0.6512 -29.922511558430145 -10.86326352808674 -40.95017645024895 0 0 1
1239 413 1 -0.3256 -30.288936041221042 -9.795343118179373 -41.16401650276512 0 0 1
1237 413 1 -0.3256 -29.55158958298062 -11.928552895992405 -40.73103692126365 0 0 1
267 89 1 -0.3256 -28.62163305683199 -57.35335551995658 -35.291501157827554 0 0 0
8 3 2 0.6512 16.32589241330484 -51.05743727553337 -33.51819839994134 0 0 0
7 3 1 -0.3256 15.248465486005625 -50.792675906697156 -33.217204226990404 0 0 0
9 3 1 -0.3256 17.40380890318311 -51.305085400176985 -33.832644885266255 0 0 0
996 332 1 -0.3256 33.93926869610678 -57.27047029157688 -30.582036378796438 0 1 0
995 332 2 0.6512 34.211115238364144 -57.56296857082653 -31.65947809571048 0 1 0
241 81 1 -0.3256 23.091779061008438 -58.15359771632825 -29.287348023107132 0 0 0
242 81 2 0.6512 23.503032131132713 -58.8538948705084 -30.100442988273144 0 0 0
243 81 1 -0.3256 23.914264045727293 -59.554054177862696 -30.913471555313727 0 0 0
209 70 2 0.6512 -53.505854835091405 -44.7006149636922 -32.59846820298291 0 0 1
210 70 1 -0.3256 -53.30033504813297 -43.899919590240074 -33.40019376800337 0 0 1
208 70 1 -0.3256 -53.70426055537151 -45.51252899323911 -31.807490257208244 0 0 1
23 8 2 0.6512 -11.9739337127583 -46.02410795325907 -31.735519044974367 0 0 0
22 8 1 -0.3256 -12.36524218734737 -46.487389847628165 -30.759529669930586 0 0 0
24 8 1 -0.3256 -11.583078895684823 -45.56100751698243 -32.71173763201366 0 0 0
1165 389 1 -0.3256 -6.951634264395592 -48.63065555033302 -37.46563227127922 -1 -1 0
1166 389 2 0.6512 -7.4995110337457325 -47.67539516757589 -37.14854834685058 -1 -1 0
1167 389 1 -0.3256 -7.999325727973776 -46.697256997590976 -36.82118283268691 -1 -1 0
505 169 1 -0.3256 -3.6781575954503745 -47.277874815951286 -29.865465406438908 0 0 1
506 169 2 0.6512 -3.7820710760360887 -46.524700803884336 -28.999750293254703 0 0 1
507 169 1 -0.3256 -3.8730675672918795 -45.76753466750262 -28.141586434225193 0 0 1
298 100 1 -0.3256 50.30273827603627 -46.783676577533136 -33.34436264602509 0 0 0
299 100 2 0.6512 51.36138524958632 -46.584464896169756 -33.74452227419679 0 0 0
300 100 1 -0.3256 52.423159706800014 -46.38659302884581 -34.13685310711152 0 0 0
58 20 1 -0.3256 -47.264172436475505 -41.03964521203721 -31.755670461466295 0 0 0
60 20 1 -0.3256 -49.39504648606462 -40.25244031283589 -31.358136181885044 0 0 0
59 20 2 0.6512 -48.32893573932472 -40.64388310243971 -31.557454984666673 0 0 0
92 31 2 0.6512 -6.361468829498291 -40.42652477820291 -31.795464886852677 0 0 0
91 31 1 -0.3256 -7.049810694293804 -41.185192103846084 -31.273682115365748 0 0 0
93 31 1 -0.3256 -5.669242803918806 -39.66217983326158 -32.302701024655796 0 0 0
52 18 1 -0.3256 28.11005903350653 -39.63540743159076 -35.734378015502045 -2 -2 -1
53 18 2 0.6512 27.605041745822486 -40.66708266356939 -35.607170931379784 -2 -2 -1
54 18 1 -0.3256 27.116405130859583 -41.70457864846954 -35.46958446824854 -2 -2 -1
657 219 1 -0.3256 -56.852836923835824 -37.53876915804086 -49.03140485278819 0 0 0
656 219 2 0.6512 -56.69501506498555 -37.40899534839989 -50.165208290826094 0 0 0
655 219 1 -0.3256 -56.54238591275912 -37.28446594106532 -51.30043964686506 0 0 0
328 110 1 -0.3256 -25.34794550246342 -22.187686884429194 -34.250156908685796 0 0 0
330 110 1 -0.3256 -25.957879431468964 -21.925067772341325 -36.45052821572539 0 0 0
329 110 2 0.6512 -25.654272438862023 -22.05527140414108 -35.34973075456817 0 0 0
35 12 2 0.6512 -26.41925973904034 -25.529907500398874 -36.80004475499309 0 0 0
34 12 1 -0.3256 -27.493894411581397 -25.894037204869033 -36.98099781928829 0 0 0
36 12 1 -0.3256 -25.345503085175654 -25.16397359091343 -36.61609533590102 0 0 0
260 87 2 0.6512 -14.920807914150348 -26.94152229424614 -40.86667449343828 0 0 0
259 87 1 -0.3256 -13.964010390997661 -27.15262654229251 -40.26557492579464 0 0 0
261 87 1 -0.3256 -15.875674321360522 -26.727242569904924 -41.47021592686865 0 0 0
342 114 1 -0.3256 -0.7867824327964814 -20.903697628818765 -38.68387008550716 0 0 0
341 114 2 0.6512 -1.218715997738951 -21.27274445557481 -37.68333774557774 0 0 0
340 114 1 -0.3256 -1.650354234681639 -21.642093391901877 -36.68279077683946 0 0 0
84 28 1 -0.3256 -3.4833639766425737 -19.877822837460226 -34.5336397737667 0 0 0
283 95 1 -0.3256 12.809303877911189 -21.719781761258425 -32.94682122795648 0 0 0
284 95 2 0.6512 13.715114907727488 -21.0576257264843 -32.69931904982156 0 0 0
285 95 1 -0.3256 14.620988464374118 -20.395721599562222 -32.45125251478443 0 0 0
51 17 1 -0.3256 22.38735574709028 -25.418703380163993 -27.933369515861326 0 0 0
50 17 2 0.6512 21.645436419390176 -26.059930753277246 -28.533136411202676 0 0 0
875 292 2 0.6512 -42.03315524814204 -5.117734461849868 -34.755592222653604 0 1 0
874 292 1 -0.3256 -42.07891558901686 -5.415633885200496 -35.86082311965204 0 1 0
83 28 2 0.6512 -3.8932700232999493 -20.846751476193955 -34.07057498426665 0 0 0
82 28 1 -0.3256 -4.303116241356633 -21.815343490876607 -33.60679298829872 0 0 0
1248 416 1 -0.3256 8.507348476225523 -21.25184280481855 -40.94271803513022 0 0 0
1246 416 1 -0.3256 9.473796158845571 -21.014103845648567 -38.871843636001124 0 0 0
1247 416 2 0.6512 8.987738961022107 -21.125010673543336 -39.90693621038697 0 0 0
38 13 2 0.6512 13.748235342657873 -10.857917282682946 -38.2921167780855 0 0 0
37 13 1 -0.3256 13.020589631648097 -10.688445675593247 -37.41919201789809 0 0 0
184 62 1 -0.3256 23.273542229631925 -10.83805681268837 -34.28856694107981 0 0 0
186 62 1 -0.3256 21.98826639180824 -12.237009681027972 -32.994193709607465 0 0 0
185 62 2 0.6512 22.631781978250654 -11.53741066069948 -33.64037445985302 0 0 0
128 43 2 0.6512 -56.70789032893519 -0.6152149228230062 -39.56768264273109 1 0 0
127 43 1 -0.3256 -57.42180908703047 -0.920339301126584 -40.41485601508214 1 0 0
129 43 1 -0.3256 -55.99079231510511 -0.3136579950491284 -38.72199324489381 1 0 0
876 292 1 -0.3256 -41.98331593502668 -4.815602990789714 -33.65243940364467 0 1 0
1115 372 2 0.6512 -35.16016026651799 -7.30875089738698 -33.69508425438134 0 0 1
1116 372 1 -0.3256 -34.13013918423048 -7.584593389924731 -34.12324740328413 0 0 1
1114 372 1 -0.3256 -36.191285120949345 -7.035651331260306 -33.26746656182064 0 0 1
248 83 2 0.6512 -26.357679114125094 -7.473844659712957 -31.35212786951866 0 0 0
247 83 1 -0.3256 -25.27678101142329 -7.488151311293339 -31.74172426513999 0 0 0
249 83 1 -0.3256 -27.438540817551406 -7.459102581262784 -30.96248213924533 0 0 0
385 129 1 -0.3256 -16.641540462363103 -2.782657854336597 -37.84417464799625 0 0 0
386 129 2 0.6512 -15.520454573616725 -2.757559116007098 -37.5894234113003 0 0 0
387 129 1 -0.3256 -14.399571670630912 -2.734412790980552 -37.335559246632826 0 0 0
39 13 1 -0.3256 14.4787246995737 -11.029168798009174 -39.16239025781375 0 0 0
885 295 1 -0.3256 43.465767854048586 -8.748738133537593 -34.622832665272654 0 0 0
884 295 2 0.6512 42.851827579957714 -8.936636570800578 -35.57567266660859 0 0 0
883 295 1 -0.3256 42.23808049846171 -9.125970633521433 -36.52843670036658 0 0 0
234 78 1 -0.3256 58.945378547949694 -4.839838042945923 -31.686669357322142 -1 0 0
233 78 2 0.6512 58.196697528486716 -5.68207755648783 -31.911417901027413 -1 0 0
232 78 1 -0.3256 57.449087419891434 -6.525112511879196 -32.13686441524171 -1 0 0
1370 457 2 0.6512 -49.211676336560174 -53.248737331533974 -24.798483667433207 0 2 -1
1371 457 1 -0.3256 -48.95590353740069 -52.24613681136849 -25.269617131401322 0 2 -1
1369 457 1 -0.3256 -49.480894523249994 -54.242718851393185 -24.313227818036445 0 2 -1
207 69 1 -0.3256 -41.510395387800585 -57.15320076645578 -53.71505470767626 0 0 1
331 111 1 -0.3256 56.20295203540643 -10.762299614698907 -5.478858103050367 0 0 0
579 193 1 -0.3256 -17.351344057072527 -50.77993567582933 -20.09545958724082 0 0 0
578 193 2 0.6512 -16.345784636972986 -51.29553188773971 -20.3064590142056 0 0 0
642 214 1 -0.3256 54.95532996672835 -7.660067712241449 -3.113448825213405 0 0 0
777 259 1 -0.3256 -4.318253060750608 -8.937696757711022 -3.421729022916008 0 0 0
266 89 2 0.6512 -29.276593984372774 -57.02936419446243 -34.404899221691416 0 0 0
30 10 1 -0.3256 17.647272351713937 -56.88539551396338 -21.076172666091697 0 0 0
994 332 1 -0.3256 34.48169196971624 -57.85549746376573 -32.73720341744853 0 1 0
361 121 1 -0.3256 -50.5679192361962 -47.77462012803994 -22.79524112501402 1 0 0
362 121 2 0.6512 -50.82839416015435 -47.61142109773694 -23.902269181878516 1 0 0
363 121 1 -0.3256 -51.08421313023568 -47.44838848715542 -25.010740873340602 1 0 0
76 26 1 -0.3256 -52.86014389583189 -48.758913189974876 -27.376885479649193 1 0 0
77 26 2 0.6512 -52.03830956714471 -49.44957637961173 -26.96711387993942 1 0 0
78 26 1 -0.3256 -51.221898822543174 -50.146534554193714 -26.556833405487488 1 0 0
337 113 1 -0.3256 -16.58683333550985 -50.212182621355204 -23.09472235597716 0 0 0
339 113 1 -0.3256 -16.456303539432703 -48.059860221757475 -23.8891421830113 0 0 0
338 113 2 0.6512 -16.522749212777786 -49.1358517653464 -23.492124158055216 0 0 0
381 127 1 -0.3256 -9.054647697380721 -46.72349094331705 -24.35639929458741 0 0 0
380 127 2 0.6512 -9.820547510427122 -45.991176143203816 -23.911349733082957 0 0 0
379 127 1 -0.3256 -10.588353853848622 -45.26066084127103 -23.466112039554446 0 0 0
623 208 2 0.6512 4.2052794700618525 -42.21629302979101 -22.791953266687432 0 1 0
622 208 1 -0.3256 4.036689880064389 -42.60538554911015 -21.72600549882847 0 1 0
624 208 1 -0.3256 4.379400359669192 -41.81287810640606 -23.851510652647107 0 1 0
194 65 2 0.6512 1.1902296287933096 -45.23359434984604 -23.790446158228317 0 0 0
193 65 1 -0.3256 2.1818538042176074 -44.68734712076584 -23.9898256102349 0 0 0
195 65 1 -0.3256 0.19810744303046524 -45.778323699366474 -23.59212198830637 0 0 0
1211 404 2 0.6512 32.99249786880376 -51.487215241175335 -36.770468765512625 1 -2 -1
1212 404 1 -0.3256 33.99025809143413 -51.38546454416909 -36.210094740008955 1 -2 -1
1210 404 1 -0.3256 31.978898139480936 -51.570546293628254 -37.30443890999144 1 -2 -1
740 247 2 0.6512 42.08971467851401 -45.37863345422108 -27.646183082103356 0 0 1
739 247 1 -0.3256 41.1675289169691 -45.55426308563135 -26.982321249277653 0 0 1
741 247 1 -0.3256 43.012733719265086 -45.20497421987605 -28.309817439009265 0 0 1
865 289 1 -0.3256 52.608266434142536 -43.211315166511525 -20.525621068492338 0 1 0
360 120 1 -0.3256 -19.430794522978328 -36.06775066248873 -23.60176015486565 0 0 0
359 120 2 0.6512 -18.564247853251477 -36.41734545714433 -22.93314364541366 0 0 0
358 120 1 -0.3256 -17.698050081425798 -36.757557786253976 -22.25917366727868 0 0 0
292 98 1 -0.3256 -13.547245946634252 -43.70314760440112 -22.565131507647003 0 0 0
293 98 2 0.6512 -12.798023446026804 -43.73022033483464 -21.69437606345895 0 0 0
294 98 1 -0.3256 -12.05259783091907 -43.75523836822124 -20.820156999460128 0 0 0
1039 347 1 -0.3256 39.92511948085871 -42.57842005259919 -25.297573138858287 -1 -1 0
1040 347 2 0.6512 39.597885179462374 -41.495080784763594 -25.603199080574527 -1 -1 0
237 79 1 -0.3256 -48.17592658830043 -22.738429851549213 -20.42515154879982 0 0 0
235 79 1 -0.3256 -48.41688148537086 -20.463723144877985 -20.648922382968358 0 0 0
236 79 2 0.6512 -48.29549348338568 -21.60103285520753 -20.53745707068695 0 0 0
18 6 1 -0.3256 -38.213629747097926 -21.842370472961065 -22.087712776007525 0 0 0
17 6 2 0.6512 -39.05634361735398 -22.58543714676094 -21.846693530310656 0 0 0
16 6 1 -0.3256 -39.89831057853802 -23.328872348736958 -21.604182480628143 0 0 0
49 17 1 -0.3256 20.89377670584776 -26.69574613312145 -29.126485214474172 0 0 0
33 11 1 -0.3256 43.16846305653253 -23.969764112820187 -21.838565405381082 0 0 0
301 101 1 -0.3256 42.1171422170842 -20.934067024440417 -22.130844200639718 0 0 0
302 101 2 0.6512 41.99157117958512 -21.563755106401597 -23.083892771739745 0 0 0
303 101 1 -0.3256 41.86819473652926 -22.191093751346887 -24.038874561922377 0 0 0
32 11 2 0.6512 44.26542502469962 -24.301858759561775 -21.924383448945363 0 0 0
31 11 1 -0.3256 45.36226779663638 -24.633178959351678 -22.010961646006365 0 0 0
151 51 1 -0.3256 -48.39938835541793 -11.762683190718956 -24.41396859778857 0 0 0
152 51 2 0.6512 -48.50563802251255 -12.898904556139348 -24.545159544907893 0 0 0
153 51 1 -0.3256 -48.61422326175478 -14.03532600348162 -24.675582390053318 0 0 0
117 39 1 -0.3256 -21.076521106192015 -15.131045888107552 -30.300471745604643 0 0 0
115 39 1 -0.3256 -21.596960390160774 -13.9208618239339 -28.41053556405096 0 0 0
116 39 2 0.6512 -21.32613360027696 -14.527391773083776 -29.352067681571256 0 0 0
627 209 1 -0.3256 -44.51344854371969 -51.68120863419516 -2.2983458310566633 0 0 0
1488 496 1 -0.3256 -42.1368218328198 -13.481122210605335 -24.481673503005545 0 -1 0
277 93 1 -0.3256 -46.17449093877528 -7.663756067489388 -17.17995438559425 0 0 0
278 93 2 0.6512 -45.752638021594606 -8.012636798202838 -18.190531123787167 0 0 0
1487 496 2 0.6512 -42.12254949645986 -12.399940887880474 -24.863634387957585 0 -1 0
1486 496 1 -0.3256 -42.1015220365124 -11.319779642078467 -25.249119636748052 0 -1 0
270 90 1 -0.3256 -23.62111125863889 -4.569740227636814 -23.10205227147905 0 0 0
269 90 2 0.6512 -24.544344702499235 -5.090505308905958 -23.54560334162562 0 0 0
268 90 1 -0.3256 -25.466823312234396 -5.611624863554012 -23.990496112817247 0 0 0
165 55 1 -0.3256 -24.939335506613375 -7.202119043376364 -19.43724785661096 0 0 0
240 80 1 -0.3256 -23.262676246591592 -49.16675499342359 -11.65555375114528 0 0 0
238 80 1 -0.3256 -21.271450769369558 -50.03006566125654 -12.412834313541488 0 0 0
239 80 2 0.6512 -22.267036279739447 -49.59881293958253 -12.033823570229272 0 0 0
690 230 1 -0.3256 -20.586274116657556 -56.672132747467124 -13.395292836668606 0 0 0
689 230 2 0.6512 -20.31886147407783 -55.56713715901986 -13.22860818125631 0 0 0
688 230 1 -0.3256 -20.051393357582164 -54.46160846316605 -13.064847446808912 0 0 0
577 193 1 -0.3256 -15.340357124549147 -51.810372626547995 -20.518158164246024 0 0 0
543 181 1 -0.3256 -18.603365340241396 -58.99025885196925 -19.550170446726433 0 0 0
541 181 1 -0.3256 -19.504764288677734 -56.87662121273901 -19.58771088546765 0 0 0
542 181 2 0.6512 -19.054124352152783 -57.933653362087526 -19.570548218033053 0 0 0
355 119 1 -0.3256 -17.018968188123626 -53.34383433688919 -17.9863755711078 0 0 0
356 119 2 0.6512 -17.76776923717849 -53.90135878125998 -17.315651321906135 0 0 0
357 119 1 -0.3256 -18.513681013362305 -54.45974965830139 -16.64247939795599 0 0 0
29 10 2 0.6512 18.04176164373076 -57.88013157619147 -21.49509047664493 0 0 0
28 10 1 -0.3256 18.43365360617121 -58.87703628745059 -21.911084850097662 0 0 0
326 109 2 0.6512 -36.969766856128736 -42.98255507978889 -15.413416949243235 0 0 0
327 109 1 -0.3256 -35.894645604657036 -43.38994105895197 -15.39311169242285 0 0 0
190 64 1 -0.3256 -32.49972669576335 -46.82434350905007 -12.236118805149124 0 0 0
191 64 2 0.6512 -31.62224516707736 -46.97875339469285 -12.961832139856686 0 0 0
192 64 1 -0.3256 -30.74426830649379 -47.13072219579174 -13.687441082335706 0 0 0
325 109 1 -0.3256 -38.04515184349216 -42.57719834999013 -15.438302050806644 0 0 0
1198 400 1 -0.3256 -29.713618710342654 -43.86423259792086 -16.253720332692566 0 0 0
1199 400 2 0.6512 -29.82361410633771 -44.95049754077344 -16.613176641641008 0 0 0
1200 400 1 -0.3256 -29.931870369638307 -46.03672731542458 -16.972694801797253 0 0 0
219 73 1 -0.3256 9.32422469920542 -45.79902633434233 -13.620512335545294 0 0 0
218 73 2 0.6512 9.026600290418878 -46.24350527173193 -14.637777800296675 0 0 0
217 73 1 -0.3256 8.72786633841232 -46.68854948070562 -15.654519358098359 0 0 0
199 67 1 -0.3256 12.110159080147485 -47.96244944558497 -8.450434262426771 0 0 0
1480 494 1 -0.3256 43.18473502802245 -45.16855635974463 -15.751199796993905 0 1 0
1481 494 2 0.6512 42.602497020205206 -45.516360461421286 -16.679618328614794 0 1 0
1482 494 1 -0.3256 42.02712794780464 -45.86249931536356 -17.61251918388955 0 1 0
866 289 2 0.6512 51.598597941084684 -43.34312648081496 -21.05876381565555 0 1 0
867 289 1 -0.3256 50.589490866574636 -43.472722832800414 -21.593554096547336 0 1 0
343 115 1 -0.3256 -47.682926536906656 -28.924864536327597 -15.790890076783652 0 0 0
202 68 1 -0.3256 -42.105903861773434 -35.1304205576886 -3.122057202778641 0 0 1
203 68 2 0.6512 -42.0945760409536 -36.24038041867385 -2.8257190556391834 0 0 1
998 333 2 0.6512 -10.94268675441468 -34.43112954623616 -17.413232050321636 -1 1 0
997 333 1 -0.3256 -10.148314467182798 -35.261714148173205 -17.399317018077515 -1 1 0
999 333 1 -0.3256 -11.737598924911602 -33.60117593047438 -17.42821332370032 -1 1 0
1041 347 1 -0.3256 39.25615481562087 -40.396863482340045 -25.81462169196605 -1 -1 0
857 286 2 0.6512 44.216342261565266 -35.85630201586426 -9.932607092731269 0 1 0
858 286 1 -0.3256 45.25225186663376 -35.979280600042685 -9.451238288963713 0 1 0
345 115 1 -0.3256 -49.81377342586368 -28.930765315547976 -14.929807042895675 0 0 0
344 115 2 0.6512 -48.74846540958242 -28.929110751165325 -15.361085849615243 0 0 0
162 54 1 -0.3256 -50.955596569956036 -26.111316673185915 -16.347633219781518 0 0 0
160 54 1 -0.3256 -50.03269792804481 -25.853340033628587 -14.258792437799695 0 0 0
161 54 2 0.6512 -50.4937614938428 -25.98385440854285 -15.302953180051096 0 0 0
171 57 1 -0.3256 -29.749507768513368 -9.534647193872079 -18.526170617174238 0 0 0
169 57 1 -0.3256 -29.197655224026967 -11.228603409748406 -17.074364896186562 0 0 0
170 57 2 0.6512 -29.4726943832234 -10.380742952178354 -17.79957478914246 0 0 0
1350 450 1 -0.3256 2.266152656733604 -12.621051967525108 -17.2682842593655 0 0 0
1348 450 1 -0.3256 3.051923547182332 -14.228085012129105 -18.714395329392506 0 0 0
1349 450 2 0.6512 2.6589277389035892 -13.42404291662482 -17.991936639436915 0 0 0
896 299 2 0.6512 -49.667171611890204 -0.5089780410336248 -17.812651716362183 1 1 0
775 259 1 -0.3256 -6.406364943470661 -8.902368653299293 -2.4623447541188987 0 0 0
279 93 1 -0.3256 -45.32753197299951 -8.356162188769524 -19.201241076498135 0 0 0
164 55 2 0.6512 -25.682934587622707 -7.651081336072854 -18.68483452652547 0 0 0
163 55 1 -0.3256 -26.42810127785296 -8.099237326097025 -17.933365657410654 0 0 0
289 97 1 -0.3256 24.47070495278348 -1.2690270216476913 -15.731708879290716 0 0 0
290 97 2 0.6512 24.593975805888633 -0.3884950940546352 -16.45949938557556 0 0 0
626 209 2 0.6512 -45.648108172715325 -51.77042586762338 -2.4559710535322195 0 0 0
625 209 1 -0.3256 -46.78274963778465 -51.8561849208597 -2.615363590829152 0 0 0
940 314 1 -0.3256 -30.986699065829505 -43.786009336753686 -5.216338357553091 0 1 0
370 124 1 -0.3256 -17.470988839783054 -53.97072632701389 -5.608530380662844 0 0 0
371 124 2 0.6512 -17.281162731981443 -54.24594099487722 -4.509186776387141 0 0 0
372 124 1 -0.3256 -17.097954018570842 -54.523594322853754 -3.409269626730964 0 0 0
280 94 1 -0.3256 -7.36160849027205 -50.69451234102389 -6.837442798103402 0 0 0
682 228 1 -0.3256 25.331094062142405 -57.04318884174589 -2.3968202340425884 0 0 0
683 228 2 0.6512 26.149195211960702 -56.2391860029623 -2.3238009758068396 0 0 0
684 228 1 -0.3256 26.968056398043633 -55.4361845129464 -2.251397533007974 0 0 0
942 314 1 -0.3256 -30.89651597778968 -46.081727145344125 -5.1482887490822025 0 1 0
941 314 2 0.6512 -30.940910410942642 -44.933816623582516 -5.182227661277308 0 1 0
226 76 1 -0.3256 -12.02116515887639 -45.98442426903272 -6.249232111533975 0 0 0
227 76 2 0.6512 -11.249525745202602 -46.79780437503575 -5.9974814392320495 0 0 0
228 76 1 -0.3256 -10.478875658639806 -47.612312346894335 -5.746101317674129 0 0 0
281 94 2 0.6512 -6.724129639490391 -50.44999537880204 -5.913226765845813 0 0 0
282 94 1 -0.3256 -6.085531322159662 -50.20584440070802 -4.989651394915659 0 0 0
200 67 2 0.6512 12.923529931558573 -48.765472988923555 -8.332240602148431 0 0 0
201 67 1 -0.3256 13.737164294784149 -49.5682011866696 -8.213800830918494 0 0 0
384 128 1 -0.3256 26.812545729372246 -44.734767238742 -4.093454132072105 0 0 0
383 128 2 0.6512 26.97807188228806 -45.53877973564909 -4.897618478722501 0 0 0
382 128 1 -0.3256 27.143890925859775 -46.34267143460525 -5.701829866774563 0 0 0
204 68 1 -0.3256 -42.08300422335655 -37.350034903022525 -2.5280861823914016 0 0 1
856 286 1 -0.3256 43.180796086048375 -35.737075989940834 -10.415903521149819 0 1 0
154 52 1 -0.3256 -59.63868315319256 -22.933700150294598 -1.7710838222967695 1 0 0
373 125 1 -0.3256 -49.260248093397486 -23.61697350199214 -4.002797648885826 0 0 0
374 125 2 0.6512 -48.371334131976035 -23.029249149557007 -3.5730527443679003 0 0 0
375 125 1 -0.3256 -47.48223913301881 -22.441748550034085 -3.1434432067152915 0 0 0
760 254 1 -0.3256 15.794429708538564 -23.77761159411429 -7.687321145834806 0 0 0
761 254 2 0.6512 15.7074137594265 -24.511238367541758 -8.567592108826188 0 0 0
762 254 1 -0.3256 15.620888720102961 -25.244224453348547 -9.448403318634075 0 0 0
483 161 1 -0.3256 23.74284150482518 -13.30412419750334 -0.36393564620253593 0 0 0
155 52 2 0.6512 59.90167522969604 -23.0375795514899 -0.7231401946871626 0 0 0
187 63 1 -0.3256 -14.973851717918368 -18.32165271165054 -2.8370333543615085 0 0 0
188 63 2 0.6512 -14.571598870530144 -18.17692922588974 -1.7704354321134266 0 0 0
189 63 1 -0.3256 -14.169747428434858 -18.031718590608964 -0.7037665236636231 0 0 0
960 320 1 -0.3256 6.181546114710095 -17.52038803775818 -2.8271433902859235 1 0 0
958 320 1 -0.3256 8.32777964047073 -18.342105533379282 -2.8358665144704163 1 0 0
959 320 2 0.6512 7.254759991601876 -17.93104689669092 -2.8315614455891693 1 0 0
211 71 1 -0.3256 -8.294650142712698 -58.55797683714171 -56.11934746579799 0 0 0
787 263 1 -0.3256 15.463504701859256 -1.231633653692186 -38.58910558381068 -1 0 0
20 7 2 0.6512 22.007995006005878 -16.617108591688112 -3.586498046830556 0 0 0
21 7 1 -0.3256 22.32171641290708 -17.712050734573513 -3.4332632854107215 0 0 0
19 7 1 -0.3256 21.694796830101314 -15.522234186439317 -3.7402781271696632 0 0 0
333 111 1 -0.3256 57.44174372065121 -8.872832366101404 -5.05597641384795 0 0 0
332 111 2 0.6512 56.82230310492905 -9.817877625139458 -5.266263239263769 0 0 0
159 53 1 -0.3256 -47.20401447606102 -1.505662527013557 -6.5326157164157586 0 0 0
158 53 2 0.6512 -46.334941753819066 -2.0958013602361167 -6.067080144612838 0 0 0
157 53 1 -0.3256 -45.46668721031554 -2.6862134513116644 -5.600399122159119 0 0 0
414 138 1 -0.3256 -37.09056811559741 -41.76746346520531 -59.52932327806695 0 0 1
168 56 1 -0.3256 -4.369568284948426 -59.902408784146374 -50.80462478222667 0 0 0
788 263 2 0.6512 15.598134542072204 -0.16164010957523733 -38.98987996742271 -1 0 0
1475 492 2 0.6512 -58.906958938238866 -57.619874716883025 9.68398504564108 0 1 0
1476 492 1 -0.3256 -58.656024117970354 -57.06143970726071 10.656763395740901 0 1 0
769 257 1 -0.3256 51.60751695388205 -7.967032756826613 59.455065153444764 0 0 -1
445 149 1 -0.3256 -34.1169958191808 -53.35177544777361 9.873014562761384 0 0 0
446 149 2 0.6512 -35.20081666361286 -53.20724915161251 9.519770052023205 0 0 0
523 175 1 -0.3256 -13.499247670773707 -50.54652569037085 2.2171798635842537 0 0 0
524 175 2 0.6512 -14.52749186299498 -50.873560947755266 2.612159193071127 0 0 0
525 175 1 -0.3256 -15.555901980899286 -51.20043599504435 3.0068392727092204 0 0 0
479 160 2 0.6512 6.034322125405149 -49.669762414379115 5.214391638102384 0 0 0
478 160 1 -0.3256 5.758681901247024 -48.8183959889868 5.935296633092567 0 0 0
480 160 1 -0.3256 6.325692879715975 -50.51804272637979 4.496032352365839 0 0 0
635 212 2 0.6512 24.467175961390982 -53.85328707148768 1.3403763904481873 0 0 0
636 212 1 -0.3256 24.88251359224394 -54.218962507787495 0.3329778429841584 0 0 0
1066 356 1 -0.3256 19.599827531228517 -54.686709846462726 11.563368504996964 -1 1 0
1067 356 2 0.6512 20.618110825738192 -54.52309675195148 11.054082300647647 -1 1 0
1068 356 1 -0.3256 21.636639593173143 -54.35770052506274 10.545814669152364 -1 1 0
634 212 1 -0.3256 24.05487728940347 -53.48661131898588 2.3484630207765123 0 0 0
41 14 2 0.6512 -41.27117704057521 -48.31396400212847 5.909435650896049 0 0 0
40 14 1 -0.3256 -41.84160399787532 -48.50720729225195 6.8882481315105455 0 0 0
42 14 1 -0.3256 -40.70059904212647 -48.12048158525067 4.9307570208695095 0 0 0
502 168 1 -0.3256 13.30883229848173 -43.93286181057171 10.864594125460252 0 0 0
126 42 1 -0.3256 -59.03819898463739 -35.55149577478039 4.334311236401055 0 0 0
125 42 2 0.6512 -58.388308557221784 -36.413313018380954 4.7283433392702126 0 0 0
124 42 1 -0.3256 -57.7427251487529 -37.276723031267714 5.125885100533467 0 0 0
97 33 1 -0.3256 41.42653797404293 -35.77226193086049 3.07733932431687 0 0 0
580 194 1 -0.3256 43.64704374635008 -37.891396913977246 2.2304465615039124 0 0 0
628 210 1 -0.3256 47.68103899824951 -28.898133290988845 4.974440697516946 0 0 0
581 194 2 0.6512 44.325942541772825 -38.284844985964035 3.070258285858108 0 0 0
582 194 1 -0.3256 45.00413198563271 -38.677631754396685 3.910486861199346 0 0 0
98 33 2 0.6512 41.220454439125014 -36.123406032499844 2.0023930189460803 0 0 0
99 33 1 -0.3256 41.01122174580639 -36.47191963074128 0.9274943032021976 0 0 0
570 190 1 -0.3256 12.710111347985665 -23.618461989804807 13.81800208823983 0 0 1
595 199 1 -0.3256 13.548978672545244 -23.014165742845474 9.750190992263095 0 0 0
596 199 2 0.6512 13.231866214830099 -24.037204515346072 10.166973710113561 0 0 0
597 199 1 -0.3256 12.912527985267502 -25.05900082813483 10.585359127003905 0 0 0
421 141 1 -0.3256 35.02619353190254 -24.314467830360197 0.24403789100318193 0 0 0
422 141 2 0.6512 35.58484553121246 -24.19589153239444 1.2411625510724775 0 0 0
629 210 2 0.6512 46.96031735586008 -28.008861527491316 4.8744031583842435 0 0 0
630 210 1 -0.3256 46.239341629754804 -27.119752702900957 4.774713494890125 0 0 0
156 52 1 -0.3256 59.44231372538584 -23.141355337879833 0.3249315463764479 0 0 0
1379 460 2 0.6512 -51.07350146547932 -7.893583643446463 10.89334290783826 0 1 0
1378 460 1 -0.3256 -50.75977358382765 -8.28388419310471 11.929628936506058 0 1 0
1276 426 1 -0.3256 48.852468141090014 -57.93502110281326 47.92080920575941 0 1 0
1380 460 1 -0.3256 -51.390304701423936 -7.51068116158727 9.85601130477171 0 1 0
1249 417 1 -0.3256 19.409625953990027 -42.905169731713436 56.31180050539092 1 1 -1
1386 462 1 -0.3256 20.207460768538585 -1.822525865635651 43.00998771828808 0 0 0
771 257 1 -0.3256 52.19179536407888 -7.494479919561398 57.28311425879984 0 0 -1
517 173 1 -0.3256 -15.385066978402158 -1.381837004604493 0.6189903643443391 0 0 0
518 173 2 0.6512 -16.265270719444874 -1.8417512845196444 1.1969175156082623 0 0 0
519 173 1 -0.3256 -17.145772352331647 -2.3011038287082934 1.7747939464089315 0 0 0
1337 446 2 0.6512 -3.410021281926739 -0.8253395268879916 5.552792581672001 0 0 0
1338 446 1 -0.3256 -3.6596875535374283 -1.9393782895391947 5.4239259201468135 0 0 0
1474 492 1 -0.3256 -59.1580231243688 -58.17843677107258 8.711593860796476 0 1 0
1330 444 1 -0.3256 -56.002476504342354 -54.690447974891335 10.530620313527677 0 1 0
1331 444 2 0.6512 -55.74003884011543 -55.72181436092518 10.96393427617271 0 1 0
1332 444 1 -0.3256 -55.47741146047299 -56.754405886853625 11.39422460184341 0 1 0
447 149 1 -0.3256 -36.28424150899264 -53.06254726104592 9.165351757778879 0 0 0
734 245 2 0.6512 -31.626093654777872 -59.60533872713292 16.832696435835967 0 0 0
733 245 1 -0.3256 -30.759038875276115 -59.540684473946115 17.58408527866154 0 0 0
925 309 1 -0.3256 -16.388200375156448 -52.90409370676178 22.913933893478184 0 1 0
927 309 1 -0.3256 -18.060984449558084 -54.21686690243953 23.791690524479115 0 1 0
926 309 2 0.6512 -17.222680889694463 -53.56560504127734 23.34880794592203 0 1 0
665 222 2 0.6512 40.32516288152686 -53.735879279613464 17.131757831357625 0 0 0
664 222 1 -0.3256 40.10761540345074 -53.71615115448874 18.259794618589982 0 0 0
666 222 1 -0.3256 40.53738123459932 -53.75795921110227 16.00274930441591 0 0 0
503 168 2 0.6512 12.346691146877708 -43.31242284417196 10.963619652904379 0 0 0
504 168 1 -0.3256 11.38431709572424 -42.69236248279309 11.062697591037567 0 0 0
800 267 2 0.6512 40.816966365489094 -49.91383643979511 12.135166459989165 0 0 -1
799 267 1 -0.3256 40.523918397045904 -50.44929168941512 11.160882302982584 0 0 -1
801 267 1 -0.3256 41.11066425385213 -49.37737844671528 13.10882219076661 0 0 -1
606 202 1 -0.3256 -47.94037234836421 -31.57664305152451 19.17012696252881 0 0 0
604 202 1 -0.3256 -48.6615803290311 -30.364088296433856 17.355177550246033 0 0 0
605 202 2 0.6512 -48.303064304772334 -30.971367416016673 18.262528795102423 0 0 0
633 211 1 -0.3256 21.42403998089382 -31.775942119664293 17.892851399878637 0 0 0
632 211 2 0.6512 21.392028916130773 -31.417209214438547 18.983948101377525 0 0 0
631 211 1 -0.3256 21.358618640208082 -31.06019304641297 20.07539232250828 0 0 0
513 171 1 -0.3256 19.54932117569353 -34.34162032309603 19.628157393407992 0 0 0
512 171 2 0.6512 20.57190201499465 -34.68578189853356 19.232873131004904 0 0 0
511 171 1 -0.3256 21.595872927663937 -35.027250862084486 18.83950547338103 0 0 0
568 190 1 -0.3256 11.715856246240781 -22.025171115372522 12.496470473568214 0 0 1
569 190 2 0.6512 12.222883697239572 -22.816744216841734 13.155972908241433 0 0 1
435 145 1 -0.3256 51.02516882069103 -32.05113231060171 21.157888355176656 0 0 0
434 145 2 0.6512 50.07349882487004 -31.833649565308654 20.55077485787476 0 0 0
433 145 1 -0.3256 49.1237775443322 -31.614545049627843 19.941292715510784 0 0 0
429 143 1 -0.3256 55.50640158636421 -26.94535622950598 18.96792874001547 0 0 0
427 143 1 -0.3256 55.84147890697374 -27.692545530473684 16.82078830523535 0 0 0
428 143 2 0.6512 55.67563481991236 -27.316995386202098 17.893954176737054 0 0 0
410 137 2 0.6512 0.00024484149134840726 -10.585692899135557 15.819180589735218 0 0 0
409 137 1 -0.3256 -0.3413057698220912 -9.70137976930953 16.469085072604873 0 0 0
756 252 1 -0.3256 15.75207011408658 -23.88153841034322 25.408588271978914 0 0 1
754 252 1 -0.3256 14.066567302206241 -22.330339260550566 25.631494850263365 0 0 1
755 252 2 0.6512 14.904708831496492 -23.112636094040916 25.532517508255395 0 0 1
1307 436 2 0.6512 27.330488729338857 -12.173016088385001 9.203899196735497 0 0 0
1306 436 1 -0.3256 26.304132780122973 -12.005836990447 8.712713096173594 0 0 0
1308 436 1 -0.3256 28.354678687958504 -12.33712411084225 9.69993319972282 0 0 0
1132 378 1 -0.3256 -52.41520165852867 -7.551006414471112 18.352626990178102 1 1 1
1134 378 1 -0.3256 -50.829514503241974 -6.375193157726578 17.1655767716994 1 1 1
1133 378 2 0.6512 -51.628305864436854 -6.958539232085352 17.75562493298312 1 1 1
411 137 1 -0.3256 0.3410923112843456 -11.470538051392776 15.169664958669475 0 0 0
1064 355 2 0.6512 17.328518478051127 -9.207736198953521 11.923442058890306 0 0 0
1065 355 1 -0.3256 17.556494400266207 -8.095723246044898 12.10237846378523 0 0 0
1063 355 1 -0.3256 17.100008344253414 -10.31959644596458 11.744270350379564 0 0 0
462 154 1 -0.3256 48.07877431735838 -3.5122900252946474 11.70461611014973 0 0 0
461 154 2 0.6512 47.7139120305225 -4.41276334628771 11.091211654281507 0 0 0
460 154 1 -0.3256 47.350019111026135 -5.314407463050259 10.478819675733588 0 0 0
603 201 1 -0.3256 43.95783860477299 -3.737757441601251 12.908220269442097 0 0 0
602 201 2 0.6512 43.355822308333515 -2.772833842146746 13.073051006982991 0 0 0
601 201 1 -0.3256 42.75518766855515 -1.8072696639446633 13.238001844889464 0 0 0
670 224 1 -0.3256 -0.5039636759529893 -53.762837823408766 26.560909088586286 0 0 0
671 224 2 0.6512 0.38748414937946624 -54.097573148235504 25.918103855658256 0 0 0
672 224 1 -0.3256 1.2753126387234752 -54.44071986947082 25.27472207056895 0 0 0
306 102 1 -0.3256 48.08358172794941 -15.470003691096483 59.65598516363248 0 0 -1
1394 465 2 0.6512 35.085801071796574 -59.381611573813856 27.532743832369903 -1 1 1
1234 412 1 -0.3256 -8.93970998848089 -17.57147688402554 35.29947391664576 1 4 1
1236 412 1 -0.3256 -11.119891302120752 -18.152659449146682 34.81102315051475 1 4 1
1235 412 2 0.6512 -10.033593542681382 -17.83268250659951 35.02965991756313 1 4 1
608 203 2 0.6512 6.517689103991895 -43.16887325938066 26.284265407407023 0 0 0
609 203 1 -0.3256 7.144902188214837 -43.38287713598647 27.222930280059824 0 0 0
607 203 1 -0.3256 5.890616179609579 -42.95522808449073 25.34547550076568 0 0 0
639 213 1 -0.3256 36.08112083682774 -42.12651695518328 20.252782723306098 0 0 0
638 213 2 0.6512 35.48058374450142 -42.68876078171943 21.05501486505151 0 0 0
637 213 1 -0.3256 34.883157606127725 -43.252488250194844 21.858479740244793 0 0 0
667 223 1 -0.3256 -48.44289637632944 -34.477303841668515 20.653074733576137 1 0 0
669 223 1 -0.3256 -47.10457378515248 -33.16729825155899 21.985694022470504 1 0 0
668 223 2 0.6512 -47.7741029802036 -33.82055131440443 21.318039552789685 1 0 0
555 185 1 -0.3256 12.768618386487848 -35.461286677297316 27.83943829478701 0 0 0
554 185 2 0.6512 13.346520443513493 -34.540154588548994 28.210782120870206 0 0 0
1441 481 1 -0.3256 -49.6071252103669 -27.846738962855742 21.28976823704174 1 0 0
618 206 1 -0.3256 -58.42678613167502 -23.050320500674115 27.090585114635992 1 0 0
617 206 2 0.6512 -57.585226536525816 -23.75302182123364 26.74676006467894 1 0 0
1442 481 2 0.6512 -48.855283826944294 -27.822677755744518 20.420999941653605 1 0 0
1443 481 1 -0.3256 -48.10378766630385 -27.80176949251449 19.551616076068278 1 0 0
616 206 1 -0.3256 -56.74397546016158 -24.455331085286797 26.400879929293897 1 0 0
708 236 1 -0.3256 -31.549933813437388 -26.779615582515493 24.350696373810067 0 0 0
707 236 2 0.6512 -31.13828846930696 -26.993476407719747 23.299450130130424 0 0 0
706 236 1 -0.3256 -30.729684208692966 -27.208230843672546 22.247291154633608 0 0 0
494 165 2 0.6512 21.191734253307377 -24.7335301828923 30.469696153933633 0 0 0
493 165 1 -0.3256 22.312442137105702 -24.526372474901716 30.61699587676379 0 0 0
677 226 2 0.6512 -39.52823276379183 -14.870678315474347 26.26785759703978 0 0 0
678 226 1 -0.3256 -38.3808872357563 -14.853902800599432 26.327701359491698 0 0 0
676 226 1 -0.3256 -40.675597895053954 -14.887430613170341 26.20782670946864 0 0 0
475 159 1 -0.3256 -31.093333307587965 -17.377220213738703 22.254933406040763 0 0 0
476 159 2 0.6512 -32.22448729614647 -17.229594506211292 22.11585572706127 0 0 0
477 159 1 -0.3256 -33.35527808478042 -17.082117406497666 21.976314147079886 0 0 0
731 244 2 0.6512 -29.111072445335783 -15.351401901771926 23.283859745321273 0 0 0
730 244 1 -0.3256 -29.940124800372562 -14.570832334919887 23.440786168203434 0 0 0
732 244 1 -0.3256 -28.281656823450742 -16.131117948448892 23.127054000225744 0 0 0
713 238 2 0.6512 -27.195673331396428 -8.39606403777301 21.388647662359983 0 0 0
712 238 1 -0.3256 -27.938908142773602 -9.086370601332815 20.848791965978275 0 0 0
1003 335 1 -0.3256 -11.823684902460087 -11.902549494558288 26.276499669965673 1 1 -1
1004 335 2 0.6512 -11.251696378122272 -12.49935365588582 27.079637506578376 1 1 -1
1005 335 1 -0.3256 -10.670590534668477 -13.088630983913976 27.879161748547865 1 1 -1
645 215 1 -0.3256 3.5227717112232266 -13.806853156074816 28.679009094073383 0 0 0
644 215 2 0.6512 3.0399977474283992 -14.408305026080498 29.531003968158736 0 0 0
643 215 1 -0.3256 2.557272948135021 -15.01227956524336 30.380970511983477 0 0 0
701 234 2 0.6512 -55.75728922303933 -5.254276376771935 28.848985870306436 0 0 0
700 234 1 -0.3256 -55.65344490679677 -4.687522937351891 27.854755355355323 0 0 0
702 234 1 -0.3256 -55.86481341606298 -5.814010543980161 29.846521476825306 0 0 0
567 189 1 -0.3256 -52.59583392410301 -9.902442597978627 32.25363930726293 0 0 0
566 189 2 0.6512 -52.837620460225715 -8.903839398527614 31.738773069957055 0 0 0
1351 451 1 -0.3256 -42.32116884655211 -7.825046242437716 21.239061045507263 0 0 0
1352 451 2 0.6512 -42.953445881806154 -6.896617946038841 21.481668979154865 0 0 0
1353 451 1 -0.3256 -43.58474981426776 -5.967504435329966 21.724110930648582 0 0 0
714 238 1 -0.3256 -26.453335568312454 -7.703457508110548 21.927264311899485 0 0 0
401 134 2 0.6512 -24.27544952391567 -9.188605609297534 24.093268336194473 0 0 0
402 134 1 -0.3256 -23.178592071256805 -8.988253059128793 23.818295044981216 0 0 0
400 134 1 -0.3256 -25.37167000795804 -9.394278876353958 24.369769283948994 0 0 0
1159 387 1 -0.3256 12.636905832563178 -7.2512465752094455 20.190197881381607 0 0 -1
1161 387 1 -0.3256 12.74996221824111 -7.428000284438629 17.90133358215859 0 0 -1
1160 387 2 0.6512 12.69449435041832 -7.34223176746821 19.046035636092757 0 0 -1
1498 500 1 -0.3256 49.72963497645714 -53.12427821556227 38.92379832582858 0 1 1
1500 500 1 -0.3256 49.605936743237024 -51.206325728496026 40.1840932283354 0 1 1
1499 500 2 0.6512 49.667991839269654 -52.16567415392384 39.55451345976295 0 1 1
531 177 1 -0.3256 -9.671697226852627 -40.425744705633804 36.85434956667743 0 0 0
530 177 2 0.6512 -10.674699855126388 -39.934691326517886 37.12410574337655 0 0 0
647 216 2 0.6512 -8.476055712095935 -45.06071252468493 38.60741177395091 0 0 0
646 216 1 -0.3256 -7.454971839517787 -44.57816116291661 38.8199338716405 0 0 0
464 155 2 0.6512 -24.944330178530937 -31.09821009155751 31.830172762397872 0 0 0
465 155 1 -0.3256 -24.36134353614751 -30.956709956984003 30.850118331436732 0 0 0
1334 445 2 0.6512 -17.840663232234213 -31.507753064920397 24.631216150237115 1 3 -2
1333 445 1 -0.3256 -16.661086446705504 -31.6047028600552 24.508931367267476 1 3 -2
1335 445 1 -0.3256 -18.970955145898255 -31.252575240068456 24.837771317075347 1 3 -2
529 177 1 -0.3256 -11.688754576313887 -39.45897154296534 37.38221681792955 0 0 0
553 185 1 -0.3256 13.922012237863314 -33.617719475675955 28.582687178069957 0 0 0
463 155 1 -0.3256 -25.527307337645283 -31.23918624469116 32.81028642176598 0 0 0
1419 473 1 -0.3256 -7.087361758878099 -28.668043500873118 37.76952476275981 -2 -1 1
1418 473 2 0.6512 -7.395191950255982 -29.809671185241992 37.605248832003454 -2 -1 1
1417 473 1 -0.3256 -7.774566998829469 -30.9001791582316 37.52019133826261 -2 -1 1
495 165 1 -0.3256 20.070925430847108 -24.940167353968324 30.32255626463065 0 0 0
950 317 2 0.6512 53.57722194461499 -19.731289014650272 37.68570903228468 0 1 -1
951 317 1 -0.3256 53.127198898262634 -19.797162640667814 36.63043800355754 0 1 -1
949 317 1 -0.3256 54.02744790998186 -19.666206986852952 38.740965347303984 0 1 -1
783 261 1 -0.3256 -47.550966971103406 -21.418808087966312 28.831782848692207 1 0 -1
562 188 1 -0.3256 -47.36997678786823 -11.513925110157798 32.64631383305868 1 0 0
563 188 2 0.6512 -48.336221293329125 -11.07936992480222 32.201263534667646 1 0 0
564 188 1 -0.3256 -49.302246975995054 -10.643876955620483 31.756568895155826 1 0 0
782 261 2 0.6512 -47.30663466794473 -20.540994502848527 28.126840466313975 1 0 -1
781 261 1 -0.3256 -47.05898704433522 -19.663619488092603 27.422276418549746 1 0 -1
419 140 2 0.6512 -12.467000479315026 -10.00928276472751 33.28509839763553 0 0 0
420 140 1 -0.3256 -11.374493091947294 -10.112146483667395 32.944097361513315 0 0 0
418 140 1 -0.3256 -13.559571860144722 -9.907048015063898 33.62611158035644 0 0 0
598 200 1 -0.3256 -4.461064080172638 -14.795481827794008 38.318912522264206 0 0 0
599 200 2 0.6512 -4.756468621238651 -15.311223024445598 39.30225223625926 0 0 0
1162 388 1 -0.3256 44.34275958413109 -23.171129909859218 48.866092955261024 0 0 1
1163 388 2 0.6512 43.261437983820684 -23.05753806871531 48.497918348817066 0 0 1
1164 388 1 -0.3256 42.181068478101196 -22.93330375202118 48.13109773770279 0 0 1
651 217 1 -0.3256 59.273378838548815 -8.391586880744516 31.792556211024696 -1 0 0
565 189 1 -0.3256 -53.08015319449579 -7.904211840275312 31.226213768104927 0 0 0
453 151 1 -0.3256 -54.61226534757388 -6.736575051242154 36.589570218269714 0 0 0
452 151 2 0.6512 -54.69888041973569 -7.390371425709542 37.53045057712462 0 0 0
451 151 1 -0.3256 -54.782573172273715 -8.04841471818847 38.46872534745106 0 0 0
407 136 2 0.6512 -2.903608499117647 -3.8779070716578743 30.274913826509145 0 -1 2
408 136 1 -0.3256 -3.086116864372019 -4.715341603175592 29.47340412597775 0 -1 2
406 136 1 -0.3256 -2.9413301763341426 -2.9921333785120727 31.020994087431298 0 -1 2
716 239 2 0.6512 20.075678144394043 -2.9042788760590876 38.2071830850468 0 0 0
715 239 1 -0.3256 19.148816663524045 -2.6252474611547534 37.58783119820445 0 0 0
717 239 1 -0.3256 21.00239527587657 -3.1821405731288777 38.827589086344254 0 0 0
649 217 1 -0.3256 57.41230934842035 -9.712758469771117 31.522168497070467 -1 0 0
650 217 2 0.6512 58.34460427274314 -9.054970002112137 31.65885348314277 -1 0 0
70 24 1 -0.3256 -54.84738878233486 -58.46197913461708 34.74910697266774 1 0 -1
71 24 2 0.6512 -54.27613255009688 -59.05504302300024 33.946821407066686 1 0 -1
72 24 1 -0.3256 -53.69781392094295 -59.64181114305371 33.14457124719337 1 0 -1
535 179 1 -0.3256 -41.77587364760224 -53.664579503151145 48.968118944439034 1 0 0
575 192 2 0.6512 -41.08798337634225 -56.89468474634861 47.637010968096305 0 0 0
576 192 1 -0.3256 -41.585439824365345 -56.18053369647128 46.88677168844178 0 0 0
536 179 2 0.6512 -41.74758278747681 -52.53058120837735 49.150391102205525 1 0 0
537 179 1 -0.3256 -41.71515541225791 -51.39645123310971 49.33333475317929 1 0 0
574 192 1 -0.3256 -40.591123973977645 -57.607883815795155 48.38884176215429 0 0 0
750 250 1 -0.3256 -4.222274690209968 -56.46825614187516 48.58291923001381 0 0 0
749 250 2 0.6512 -3.1666860480166807 -56.07472847186968 48.35628680668819 0 0 0
748 250 1 -0.3256 -2.1117513501029497 -55.678813918287844 48.130445077860365 0 0 0
1278 426 1 -0.3256 50.97078483170523 -57.881879818331775 47.03090267768196 0 1 0
654 218 1 -0.3256 46.857254765449746 -55.63119535990627 48.85868091742379 0 0 0
653 218 2 0.6512 47.772306620069116 -55.616731484662445 49.554134112411994 0 0 0
561 187 1 -0.3256 43.95437915186229 -53.37100736123806 49.247754803126185 0 0 0
652 218 1 -0.3256 48.68793551900277 -55.597027197730206 50.24851108873693 0 0 0
560 187 2 0.6512 43.3532941398958 -54.314101846509274 49.51154703201089 0 0 0
1277 426 2 0.6512 49.91173652513164 -57.909131518488806 47.47560577164829 0 1 0
486 162 1 -0.3256 -41.77422087827603 -47.95448825467463 49.540851668470566 0 0 0
485 162 2 0.6512 -40.65857252345701 -47.882948026480875 49.807736756519624 0 0 0
484 162 1 -0.3256 -39.54263232397394 -47.80652227257024 50.071242827237114 0 0 0
648 216 1 -0.3256 -9.498741975812736 -45.54002639103661 38.39509572629131 0 0 0
514 172 1 -0.3256 20.37237793779429 -42.605946001173876 42.384332920525345 0 0 0
516 172 1 -0.3256 20.95745941155366 -41.44830509267615 40.48738952234714 0 0 0
515 172 2 0.6512 20.665065768869383 -42.02674483960258 41.43612720207697 0 0 0
613 205 1 -0.3256 -45.28879379849532 -39.730965598655715 44.593815300703014 0 0 0
614 205 2 0.6512 -46.31004139067569 -39.29981687535827 44.896146053957416 0 0 0
615 205 1 -0.3256 -47.33142799781374 -38.86897162677737 45.19847305808263 0 0 0
488 163 2 0.6512 -28.258027337740703 -35.39758569105967 45.130658789807086 0 0 0
489 163 1 -0.3256 -28.60227995159267 -34.31331928120703 45.29311075655366 0 0 0
487 163 1 -0.3256 -27.922627997019376 -36.483955556358524 44.96443997207884 0 0 0
143 48 2 0.6512 -39.502449947163704 -33.51266433480582 48.415269531525674 0 0 -1
142 48 1 -0.3256 -39.848798573026755 -33.06837286834687 49.4169739657714 0 0 -1
612 204 1 -0.3256 -11.633047172333333 -26.40604632269859 46.85112747895954 0 0 0
610 204 1 -0.3256 -13.262938531343995 -24.795348183411907 47.03894395752031 0 0 0
468 156 1 -0.3256 -13.134608040411743 -27.562883156645956 44.01726150784653 0 0 0
467 156 2 0.6512 -13.622261058994967 -28.10010132076451 43.12603489552494 0 0 0
611 204 2 0.6512 -12.449273695972408 -25.602889328703103 46.94728737351658 0 0 0
472 158 1 -0.3256 -15.78847924030257 -26.37478501010814 44.846707415328694 0 0 0
474 158 1 -0.3256 -14.631693506825764 -27.255093066789026 46.626988725760356 0 0 0
473 158 2 0.6512 -15.209650751764507 -26.81419987759118 45.73719014898497 0 0 0
466 156 1 -0.3256 -14.107715442740863 -28.633964430111806 42.23215288200521 0 0 0
737 246 2 0.6512 -16.090157621178033 -23.429564012706233 44.796593376032796 0 0 0
738 246 1 -0.3256 -16.72971052699037 -23.622247869420725 45.73181468235466 0 0 0
736 246 1 -0.3256 -15.449335222117458 -23.23835396243413 43.86194533791766 0 0 0
600 200 1 -0.3256 -5.051722232830166 -15.826434306695115 40.28593829264638 0 0 0
1171 391 1 -0.3256 46.33840283307367 -4.299775708301591 31.49597589081416 -1 2 -2
1173 391 1 -0.3256 45.92496476623184 -2.167743374374136 32.21221018722105 -1 2 -2
1172 391 2 0.6512 46.17239937720382 -3.249333654307593 31.918276074753305 -1 2 -2
850 284 1 -0.3256 -38.863640831426814 -4.279318624112588 45.30702244052993 0 0 -1
851 284 2 0.6512 -39.60771301389688 -3.4455114941831657 45.57342944763269 0 0 -1
852 284 1 -0.3256 -40.35130872836822 -2.6116236386920835 45.842360597993995 0 0 -1
481 161 1 -0.3256 25.59954568942653 -12.978060735322126 0.9506753578790714 0 0 0
720 240 1 -0.3256 44.539656246951736 -1.4140464012752898 45.78540010979509 0 0 0
719 240 2 0.6512 43.420275269882644 -1.3343025349516224 45.538659426743465 0 0 0
718 240 1 -0.3256 42.300356606191514 -1.2544440589191395 45.29276502058642 0 0 0
694 232 1 -0.3256 57.405807857792944 -3.153394345851175 45.58617629511858 0 0 0
695 232 2 0.6512 56.81061606007339 -3.060240726359648 46.56456671313066 0 0 0
696 232 1 -0.3256 56.21590437603035 -2.9673481131785806 47.54326297712137 0 0 0
757 253 1 -0.3256 -41.49696577622043 -49.982761028037075 52.03860082758304 0 0 0
758 253 2 0.6512 -42.176588543712256 -50.89920760020369 52.17526344302533 0 0 0
759 253 1 -0.3256 -42.856026568323045 -51.81693890272136 52.30861878872644 0 0 0
559 187 1 -0.3256 42.75121139462537 -55.256223004499006 49.77659751781459 0 0 0
1385 462 2 0.6512 20.181162453568962 -1.081105065343248 42.13218550736091 0 0 0
89 30 2 0.6512 29.71008754053224 -0.6888475210154159 45.147124731577904 -1 -1 -1
1054 352 1 -0.3256 -33.41071824109125 -2.9184193533945835 23.962607993787902 0 -1 -1
765 255 1 -0.3256 -9.274219098033123 -43.84394192179328 56.674628282093025 0 0 0
764 255 2 0.6512 -8.224982921693622 -44.31048227313853 56.7157978798965 0 0 0
763 255 1 -0.3256 -7.1778196050885885 -44.78136194691349 56.757288233739715 0 0 0
1251 417 1 -0.3256 17.306349376650225 -43.828505682216665 56.3848675889802 1 1 -1
144 48 1 -0.3256 -39.16210318332645 -33.95371240042101 47.410108660133204 0 0 -1
621 207 1 -0.3256 10.671613523920373 -18.56645888465971 59.51331965597763 0 0 0
547 183 1 -0.3256 -40.059305288214894 -16.56354630063786 50.88704547228794 0 0 0
548 183 2 0.6512 -39.34607587753059 -15.737520451398757 51.24647156321348 0 0 0
549 183 1 -0.3256 -38.63302752255989 -14.911527938418132 51.60633967416099 0 0 0
619 207 1 -0.3256 12.456970668162738 -19.95199741380143 59.930974387712254 0 0 0
620 207 2 0.6512 11.565412476091405 -19.258411082985347 59.719805626414804 0 0 0
423 141 1 -0.3256 36.143941275800074 -24.076056419676696 2.2381162323768113 0 0 0
533 178 2 0.6512 -15.50423652273829 -3.458454141048357 49.543711228169336 0 0 0
1390 464 1 -0.3256 -11.705821960983135 -7.670847857895673 52.343045642633165 0 0 0
534 178 1 -0.3256 -14.727533340126842 -3.754803110921507 50.33693579518416 0 0 0
1391 464 2 0.6512 -10.835080611422505 -7.282249932094665 51.70188515460301 0 0 0
1392 464 1 -0.3256 -9.964251058641057 -6.89445899164116 51.06037390661725 0 0 0
532 178 1 -0.3256 -16.280273046488634 -3.160660576701139 48.75037710656185 0 0 0
1250 417 2 0.6512 18.355507968287505 -43.36046658488648 56.34842836895656 1 1 -1
735 245 1 -0.3256 -32.4934143189106 -59.6712031877055 16.081480310549445 0 0 0
469 157 1 -0.3256 -20.675100075254928 -25.209229519400427 59.56274651559183 0 0 0
1056 352 1 -0.3256 -31.12574837909333 -3.037229087662199 23.673577986039387 0 -1 -1
1055 352 2 0.6512 -32.267117840770474 -2.9490800684099128 23.81433565788206 0 -1 -1
1395 465 1 -0.3256 34.53269382992336 -58.570629258163386 28.12875581369498 -1 1 1
770 257 2 0.6512 51.89974379817197 -7.731296905589841 58.369075732354446 0 0 -1
90 30 1 -0.3256 29.141782602140786 -1.6644034544308017 45.36211617068728 -1 -1 -1
1384 462 1 -0.3256 20.153938174355886 -0.3365170698708284 41.256964012737825 0 0 0
482 161 2 0.6512 24.670606165406813 -13.141032788365353 0.29432409342687915 0 0 0
1168 390 1 -0.3256 -5.187185624445034 10.12804755200143 -52.71288454640448 0 0 1
1170 390 1 -0.3256 -5.731132648041428 8.250699759517502 -51.50397486222548 0 0 1
1169 390 2 0.6512 -5.458163193677352 9.187930343008805 -52.1102257495241 0 0 1
320 107 2 0.6512 8.836954262763767 57.75120624386556 -46.354859831231266 0 -2 0
311 104 2 0.6512 -51.541161148705676 16.87766689573872 -58.27598288820116 1 0 1
310 104 1 -0.3256 -51.33345891872468 16.288229884110663 -59.24286608251524 1 0 1
966 322 1 -0.3256 -23.32822734830557 18.469953757976146 -49.674846645371304 0 0 0
1113 371 1 -0.3256 -42.39497644983457 32.510675774966764 -52.48216174609132 0 0 0
811 271 1 -0.3256 -34.7522220570021 23.659891350126387 -47.247088608021365 -1 0 0
812 271 2 0.6512 -35.60639670955693 24.231010144402312 -46.73147357484959 -1 0 0
813 271 1 -0.3256 -36.4603504191379 24.801147390489657 -46.214210496683954 -1 0 0
1101 367 1 -0.3256 -19.597442873910516 23.73365868745626 -50.43012555628532 0 0 0
1099 367 1 -0.3256 -19.106166951335855 25.279799560421296 -52.058289681033955 0 0 0
1100 367 2 0.6512 -19.354678692209266 24.505410554124666 -51.24610457770039 0 0 0
1256 419 2 0.6512 7.722469796283672 28.04947007161236 -56.45292346580976 0 0 1
1255 419 1 -0.3256 8.592389105772051 27.421190009901714 -56.864234045739764 0 0 1
1257 419 1 -0.3256 6.852025186232235 28.67724211626059 -56.041249998929466 0 0 1
1291 431 1 -0.3256 -6.517746140698506 6.638771464369944 -1.2261341372073746 0 0 0
1245 415 1 -0.3256 11.409656589762903 21.06595966424694 -54.86161768059156 0 0 1
871 291 1 -0.3256 14.212442222518765 26.22691087188629 -55.20675372933706 0 0 0
872 291 2 0.6512 15.287027953331267 26.309672683107063 -55.605189042259106 0 0 0
873 291 1 -0.3256 16.361805475683003 26.39100900742906 -56.003514596719526 0 0 0
1244 415 2 0.6512 12.414869030719734 21.299329187977246 -54.35645900465906 0 0 1
1243 415 1 -0.3256 13.420236136406036 21.5319453590097 -53.85107934621867 0 0 1
1026 342 1 -0.3256 43.17998153621364 23.63767162160359 -53.177047606587145 -1 0 0
1025 342 2 0.6512 44.11507105219022 24.221092832522505 -52.85204512656421 -1 0 0
1024 342 1 -0.3256 45.05018656320253 24.804153817371265 -52.526853800471535 -1 0 0
1112 371 2 0.6512 -43.293209752878944 31.798927718691147 -52.570941228986726 0 0 0
1111 371 1 -0.3256 -44.18978273458508 31.085772234652243 -52.65976304861243 0 0 0
945 315 1 -0.3256 -42.1223122234569 33.50291773406364 -56.31135973348491 0 0 0
943 315 1 -0.3256 -43.993854704264024 32.3384774412907 -55.66159636195428 0 0 0
944 315 2 0.6512 -43.058417478241324 32.92097852113954 -55.98747239243001 0 0 0
907 303 1 -0.3256 -28.242141627619677 32.66059257481063 -53.75335414285148 0 0 0
908 303 2 0.6512 -28.059720562677697 31.578182704987263 -53.41360677808592 0 0 0
909 303 1 -0.3256 -27.891695204938742 30.49371754132358 -53.07226063236081 0 0 0
1466 489 2 0.6512 -12.86955621053082 31.266213487543148 -54.58983525761852 0 0 1
870 290 1 -0.3256 -13.18943122459692 26.848484219044227 -57.57316590730742 0 -1 -1
869 290 2 0.6512 -13.557335261402264 27.20577388314853 -56.516539769578294 0 -1 -1
868 290 1 -0.3256 -13.959328365349123 27.585371339336245 -55.488624786682685 0 -1 -1
1467 489 1 -0.3256 -12.39863899111429 31.187386779627467 -53.5443801120248 0 0 1
1465 489 1 -0.3256 -13.328959081204458 31.332321639197136 -55.640741756064706 0 0 1
806 269 2 0.6512 29.800159034585665 32.5885108630378 -52.78259276060873 0 0 0
807 269 1 -0.3256 30.33622917318102 33.32305776809963 -52.08003982455559 0 0 0
805 269 1 -0.3256 29.264993723525244 31.85335961017011 -53.484766920655986 0 0 0
831 277 1 -0.3256 33.46386666445716 32.2862321311239 -52.387603519289954 0 0 0
829 277 1 -0.3256 32.2479587445836 31.527241560905235 -50.59089651713763 0 0 0
830 277 2 0.6512 32.85662170924432 31.90817073355042 -51.48818161885723 0 0 0
101 34 2 0.6512 -42.35926278671642 26.08243384808898 -55.45322943163134 0 0 1
457 153 1 -0.3256 3.6639962008042493 45.513978702430585 -0.9244905379954005 -1 1 1
1075 359 1 -0.3256 -23.788246270638886 57.240196034405415 -30.596509407170867 0 0 0
1398 466 1 -0.3256 -16.669148110593827 48.039772736453585 -59.350636388854966 0 0 1
1397 466 2 0.6512 -16.049578843254295 48.95180637883607 -59.02587204974791 0 0 1
1396 466 1 -0.3256 -15.419635908920593 49.86942186906221 -58.73910727421778 0 0 1
196 66 1 -0.3256 14.15002486378677 46.26968984979835 -55.41397894542428 0 -1 0
1138 380 1 -0.3256 13.446524481382642 48.67899325744075 -58.72305473960216 0 0 1
1139 380 2 0.6512 13.782778962753975 47.58151367653294 -58.76912919786751 0 0 1
1320 440 1 -0.3256 24.83960392460552 50.32490270989957 -54.92632765992851 0 0 1
658 220 1 -0.3256 25.84705072853141 46.452913363079446 -56.95217055763944 0 -1 1
930 310 1 -0.3256 -24.37708983178469 58.52113234334462 -23.778876412397107 0 0 0
1007 336 2 0.6512 32.846380192171175 44.804730215403374 -59.976388790902995 0 0 0
274 92 1 -0.3256 -51.614588232986776 51.89116780084172 -59.72531906060413 0 -1 0
263 88 2 0.6512 -59.11248990891145 56.4942834554553 -57.86059582237777 0 -1 0
264 88 1 -0.3256 -59.79216004552282 55.70459133555544 -58.34521215050892 0 -1 0
262 88 1 -0.3256 -58.43581219412435 57.28577590478737 -57.374667120098344 0 -1 0
276 92 1 -0.3256 -51.0232144268236 54.10877886823408 -59.60668082968632 0 -1 0
275 92 2 0.6512 -51.31713118550635 52.999555753857585 -59.66700275610916 0 -1 0
1193 398 2 0.6512 29.138685898415112 42.22294196226284 -3.405858580822279 0 0 0
393 131 1 -0.3256 -16.588091075325895 53.6258619061892 -50.83733965932527 0 -1 0
391 131 1 -0.3256 -18.287317945767374 54.463828424059336 -52.13791114265776 0 -1 0
392 131 2 0.6512 -17.437145483876623 54.044889866571374 -51.48835068969227 0 -1 0
102 34 1 -0.3256 -41.37395227244939 26.4429169693578 -54.97930457300422 0 0 1
955 319 1 -0.3256 -1.6323140373147536 51.054774578358376 -54.785763609097515 0 0 0
956 319 2 0.6512 -2.7429982668799435 51.2567905728521 -54.57152749612507 0 0 0
957 319 1 -0.3256 -3.8529275171075827 51.4607278558318 -54.35420426345557 0 0 0
198 66 1 -0.3256 15.076668874159989 48.265913050508075 -56.0763743127795 0 -1 0
197 66 2 0.6512 14.612704376688296 47.26877940740076 -55.74219240377147 0 -1 0
660 220 1 -0.3256 23.81853624570043 47.53350088055744 -56.91744962164126 0 -1 1
1319 440 2 0.6512 24.508481169417518 51.29219174955208 -54.40124371054479 0 0 1
1318 440 1 -0.3256 24.17449142948664 52.25678609755545 -53.87331222053522 0 0 1
659 220 2 0.6512 24.83406333889798 46.99559906141728 -56.928586311882704 0 -1 1
1285 429 1 -0.3256 42.841821102719074 54.80926392793051 -58.362995028111925 0 0 1
1287 429 1 -0.3256 41.18037986957219 53.30351785028656 -58.870514169405475 0 0 1
1286 429 2 0.6512 42.01214411518189 54.05601017284577 -58.61880392378757 0 0 1
913 305 1 -0.3256 -21.684332700214316 10.43476995754343 -43.04640828191513 0 0 0
914 305 2 0.6512 -21.632992312272336 9.628293652191037 -43.86320322869674 0 0 0
915 305 1 -0.3256 -21.581627380161315 8.82166949005491 -44.67994557852097 0 0 0
703 235 1 -0.3256 51.86101422749854 8.198904668980596 -35.781687707540875 0 0 1
704 235 2 0.6512 52.86046242828035 7.89996110745702 -36.26396539264845 0 0 1
705 235 1 -0.3256 53.85997023679107 7.602110877043063 -36.74670238479834 0 0 1
1347 449 1 -0.3256 -52.92340274338791 13.137445040773219 -46.71625769523003 1 0 1
1346 449 2 0.6512 -51.80036225497546 13.257856211659607 -46.505691510285025 1 0 1
1345 449 1 -0.3256 -50.67653975242125 13.378380590593856 -46.300047988273484 1 0 1
965 322 2 0.6512 -22.517363922051693 19.138797331551245 -49.21044211907834 0 0 0
860 287 2 0.6512 43.23221647053806 18.47475046161166 -41.870898218692375 0 0 0
861 287 1 -0.3256 43.299470457700835 18.94397961009438 -42.91803371892409 0 0 0
859 287 1 -0.3256 43.16295803221608 18.004453783924475 -40.82431235657843 0 0 0
964 322 1 -0.3256 -21.70804132597391 19.80859397741414 -48.744422916716694 0 0 0
953 318 2 0.6512 -20.46302263420543 21.63955076004748 -46.444067845915484 0 0 0
952 318 1 -0.3256 -20.197326667128475 22.528341041056308 -47.122103516120866 0 0 0
954 318 1 -0.3256 -20.727413327563404 20.753816662021297 -45.76131456346075 0 0 0
969 323 1 -0.3256 -25.557260143623807 20.35868055594331 -38.26248549866652 0 0 0
1376 459 2 0.6512 7.452851508628435 22.71614717540513 -39.06046324034874 -1 0 1
1377 459 1 -0.3256 7.891822046267308 21.79395382178831 -39.588184285143186 -1 0 1
971 324 2 0.6512 37.401282752877876 24.240969105660216 -39.99456315717203 0 0 0
767 256 2 0.6512 35.98478734677857 29.723294314101423 -41.52739044704007 0 0 0
766 256 1 -0.3256 37.00284773163292 29.730260219455165 -42.05997344054681 0 0 0
970 324 1 -0.3256 38.139377946054815 23.408582342097972 -39.69592477854655 0 0 0
819 273 1 -0.3256 -47.05323996651096 34.663808032023994 -42.13264473823687 1 0 0
818 273 2 0.6512 -47.57086757341763 35.578021632407015 -42.59950332657137 1 0 0
817 273 1 -0.3256 -48.089626784084096 36.493070432169276 -43.065019672345116 1 0 0
1061 354 2 0.6512 -2.8561377193892086 33.35968668450967 -45.51801678102658 0 0 0
1062 354 1 -0.3256 -2.0022282697396525 33.22572814681227 -46.27529891165141 0 0 0
1060 354 1 -0.3256 -3.7104504559227847 33.49163658026478 -44.76128240325184 0 0 0
1103 368 2 0.6512 -0.10888240819314479 34.95671178257077 -47.58844814784418 0 0 0
1104 368 1 -0.3256 -0.96981908072219 35.71694355181234 -47.53733063160733 0 0 0
1102 368 1 -0.3256 0.7540779917705189 34.199527959847124 -47.64025626664892 0 0 0
987 329 1 -0.3256 2.1745167769814446 37.4183313164435 -43.67279821034477 -2 0 0
768 256 1 -0.3256 34.96667112788776 29.71716914179194 -40.994253418182595 0 0 0
75 25 1 -0.3256 -51.798294364780965 44.16048750300276 -45.018293763002255 0 -1 0
74 25 2 0.6512 -52.716362964325675 43.47330076969631 -45.094772864474095 0 -1 0
73 25 1 -0.3256 -53.63195444810934 42.783596782888104 -45.17607101574775 0 -1 0
832 278 1 -0.3256 -25.44765980989345 45.57714236107865 -47.42679681923672 0 0 0
833 278 2 0.6512 -24.552210849014223 46.21409736272688 -47.76376853642811 0 0 0
834 278 1 -0.3256 -23.654735882584898 46.84014007923166 -48.11426615350947 0 0 0
1020 340 1 -0.3256 -2.534977280767199 47.1003723596367 -39.12017501773506 0 0 0
882 294 1 -0.3256 -2.53702134121609 38.978009615386654 -48.86467822570846 0 0 0
881 294 2 0.6512 -2.1036328923196903 38.86774479783076 -47.80547626398644 0 0 0
880 294 1 -0.3256 -1.6670351538024726 38.761394058375046 -46.74735264844495 0 0 0
1018 340 1 -0.3256 -0.6323808368511572 48.38904125279952 -39.101439617732346 0 0 0
1019 340 2 0.6512 -1.5831178563602855 47.74389116193337 -39.109759417197715 0 0 0
939 313 1 -0.3256 16.87644733623091 49.0077417596521 -41.79464144424845 0 0 0
937 313 1 -0.3256 15.241301385570555 48.85131870841352 -40.187646643758015 0 0 0
938 313 2 0.6512 16.059381065532833 48.928415243643244 -40.990836460785985 0 0 0
1207 403 1 -0.3256 25.250549180800324 40.417195205481754 -43.34706437899017 0 0 1
1208 403 2 0.6512 24.509251678667937 39.57442051968387 -43.1010506666323 0 0 1
1209 403 1 -0.3256 23.769041729083263 38.73313327823017 -42.84723269125043 0 0 1
321 107 1 -0.3256 7.9751588054865525 58.51036756162628 -46.417832678842814 0 -2 0
322 108 1 -0.3256 -33.520503682584575 50.631928209277994 -54.52061575750081 0 -1 0
324 108 1 -0.3256 -32.69435701325094 51.82054956384767 -52.73482420830489 0 -1 0
323 108 2 0.6512 -33.108449653268934 51.222475350973305 -53.624631413535724 0 -1 0
980 327 2 0.6512 -8.835950019054406 57.6179521905203 -43.98921030314796 0 0 0
979 327 1 -0.3256 -8.113688568039532 57.30937378260334 -44.827748080054796 0 0 0
981 327 1 -0.3256 -9.557384809122615 57.92555653105961 -43.14999427932837 0 0 0
947 316 2 0.6512 -5.9057497604890505 54.91133595853281 -41.74509488347393 0 0 0
946 316 1 -0.3256 -6.7706023737597345 55.43105026388282 -41.197426383636895 0 0 0
948 316 1 -0.3256 -5.040195061383031 54.390367798198156 -42.2911862831731 0 0 0
1293 431 1 -0.3256 -7.866055008355608 8.485861702590135 -1.456297414239298 0 0 0
1000 334 1 -0.3256 -4.538842922060431 57.83335547240687 -42.46674391085893 0 0 0
1001 334 2 0.6512 -3.9504144846921116 58.81921201209754 -42.52531567361332 0 0 0
1002 334 1 -0.3256 -3.358548449134678 59.802560643305185 -42.58276200291445 0 0 0
167 56 2 0.6512 -3.239883778700341 59.90747276608655 -50.7146974199335 0 -1 0
1140 380 1 -0.3256 14.120298868607037 46.483911870875865 -58.81232295264382 0 0 1
458 153 2 0.6512 4.687327715396363 45.909253726739 -1.2075625100170453 -1 1 1
166 56 1 -0.3256 -2.115989853049907 59.68900656492583 -50.61944511828018 0 -1 0
1044 348 1 -0.3256 -26.41238580944989 7.2510981903281895 -32.895825457856944 0 0 0
1043 348 2 0.6512 -27.098539206660686 6.431333397295994 -33.31702231236157 0 0 0
1042 348 1 -0.3256 -27.784268763586365 5.6113067924076825 -33.73852371991318 0 0 0
1027 343 1 -0.3256 -20.37704826020187 5.267773056917477 -28.92751337943353 0 0 0
1029 343 1 -0.3256 -20.250500409546355 4.482318255751838 -31.08550711012852 0 0 0
1028 343 2 0.6512 -20.313260234762602 4.874817379127913 -30.00635089492109 0 0 0
213 71 1 -0.3256 -8.28429851552859 59.143824453646594 -56.14664724642463 0 -1 0
789 263 1 -0.3256 15.734235566327369 0.9090090150708228 -39.388268983474354 -1 0 0
319 107 1 -0.3256 9.698838893340394 56.99217258883939 -46.28878253409554 0 -2 0
839 280 2 0.6512 48.50703428354635 4.0885221138651815 -35.527419704940534 0 0 0
840 280 1 -0.3256 49.616401131754536 4.385520155992443 -35.484773294400355 0 0 0
838 280 1 -0.3256 47.39786395049043 3.790988542112778 -35.56895743050497 0 0 0
878 293 2 0.6512 -16.39877549608184 17.016241290184013 -39.99620721489816 0 0 0
879 293 1 -0.3256 -17.23094095959026 17.105159568915656 -39.208534975537816 0 0 0
1430 477 2 0.6512 -15.48918672575829 15.042400649542076 -43.4079448277089 0 0 0
1431 477 1 -0.3256 -14.433686435305567 15.30210574296853 -43.780429335978496 0 0 0
1429 477 1 -0.3256 -16.5433609426149 14.779183949399492 -43.03324235966053 0 0 0
877 293 1 -0.3256 -15.567066978979307 16.92635092335154 -40.784813041621874 0 0 0
1268 423 2 0.6512 -4.036049441807404 20.70698157247139 -35.73405743740659 -1 0 0
1267 423 1 -0.3256 -4.256179827695368 21.830590147473817 -35.83284917778675 -1 0 0
43 15 1 -0.3256 -6.497688326958628 16.538964572282584 -39.200775051291934 0 0 0
45 15 1 -0.3256 -6.8942921921743725 17.12324445160906 -37.01012717037067 0 0 0
44 15 2 0.6512 -6.697504965301509 16.830048001233546 -38.10537941002466 0 0 0
1470 490 1 -0.3256 46.519508068553925 10.924681221651525 -34.156029588508304 0 0 0
1469 490 2 0.6512 46.52906644739303 9.776340605810919 -34.11478200435197 0 0 0
1468 490 1 -0.3256 46.531310414179956 8.62811203033727 -34.06701955729723 0 0 0
13 5 1 -0.3256 -37.0661910775672 24.488034807046606 -37.50202051409915 0 0 0
14 5 2 0.6512 -37.586590791167424 23.51606162221103 -37.82666691165578 0 0 0
15 5 1 -0.3256 -38.106447824384986 22.543968278496177 -38.15163587645243 0 0 0
968 323 2 0.6512 -24.53592617467052 19.998841400654285 -38.64703247903718 0 0 0
967 323 1 -0.3256 -23.516052996516375 19.636411457381367 -39.03297716761644 0 0 0
810 270 1 -0.3256 -29.104289375626447 26.245901996444015 -36.50966310407281 0 0 0
809 270 2 0.6512 -29.602553237176128 27.170164908503374 -36.97673996375098 0 0 0
808 270 1 -0.3256 -30.101639070146252 28.093521863056118 -37.44434803014294 0 0 0
1009 337 1 -0.3256 -23.539175296248857 23.556876414684208 -36.8013335648049 0 0 0
1011 337 1 -0.3256 -23.745050137795758 25.66592615297395 -35.910935293594655 0 0 0
1010 337 2 0.6512 -23.641979665017523 24.610918837500343 -36.354629363373085 0 0 0
1059 353 1 -0.3256 -23.399068450276005 24.924390754891938 -33.03298251126295 0 0 0
1057 353 1 -0.3256 -23.68297643189771 26.41528635493393 -31.307121161212887 0 0 0
1058 353 2 0.6512 -23.541319354574775 25.67059663587911 -32.170753491703195 0 0 0
1269 423 1 -0.3256 -3.8128558552905276 19.583612606328057 -35.63962817924558 -1 0 0
847 283 1 -0.3256 -8.467808177724548 29.109658028378846 -38.532575278564465 0 0 0
849 283 1 -0.3256 -7.479351089398062 28.41630744342554 -36.57677779694049 0 0 0
848 283 2 0.6512 -7.974624552149386 28.761171528697194 -37.55497964566749 0 0 0
2 1 2 0.6512 -7.850500441478471 31.407337063251536 -35.041144177205 0 0 0
1 1 1 -0.3256 -8.984739194122664 31.35861026768711 -35.220512610168605 0 0 0
3 1 1 -0.3256 -6.715975978143609 31.456530322961587 -34.86696279475611 0 0 0
1375 459 1 -0.3256 7.0086446609821635 23.64102712164791 -38.541846307264485 -1 0 1
1421 474 2 0.6512 18.47536351981259 25.50449624668625 -35.76355276086284 -2 -2 -1
1422 474 1 -0.3256 17.41450035201664 25.771054649813532 -36.094731599111974 -2 -2 -1
1420 474 1 -0.3256 19.558121732900975 25.311452563139166 -35.46364263599286 -2 -2 -1
972 324 1 -0.3256 36.668352091451546 25.07944523549131 -40.289548336967876 0 0 0
1079 360 2 0.6512 34.35796682217022 28.290719298870407 -38.44257080998969 0 0 0
1078 360 1 -0.3256 33.37502453232711 28.880009172973974 -38.35949156202533 0 0 0
1080 360 1 -0.3256 35.34146032858708 27.701513698211404 -38.5239602347512 0 0 0
986 329 2 0.6512 3.243224038605415 37.21306171601119 -43.268762639684994 -2 0 0
985 329 1 -0.3256 4.294410347204895 36.99953922067903 -42.82661092811914 -2 0 0
1439 480 2 0.6512 21.062133174748965 32.11828510223372 -21.211510930788148 0 -1 3
1440 480 1 -0.3256 20.429732962570142 32.399331011701186 -22.133731761313264 0 -1 3
1438 480 1 -0.3256 21.68574574465664 31.831096882595478 -20.28794613458115 0 -1 3
1233 411 1 -0.3256 18.141326803618064 39.11186006983424 -35.21166023025218 0 0 1
1232 411 2 0.6512 17.99983117544056 39.359484810657136 -36.325088773573945 0 0 1
1231 411 1 -0.3256 17.859564298420814 39.60082731229588 -37.43971216740953 0 0 1
1084 362 1 -0.3256 -12.915204564558898 56.36481656329643 -37.760653488610735 3 2 -2
1086 362 1 -0.3256 -14.94061617551261 55.43196558444498 -37.57574133176221 3 2 -2
1085 362 2 0.6512 -13.927555019595365 55.87912429664321 -37.6913536557 3 2 -2
1194 398 1 -0.3256 29.071174430321115 43.33854929626006 -3.140842156734194 0 0 0
312 104 1 -0.3256 -51.75849756251814 17.46308660270848 -57.30909072876927 1 0 1
95 32 2 0.6512 -20.319232463531446 53.86522120245693 -34.87814757150805 0 -1 0
94 32 1 -0.3256 -19.92003381352637 53.65008659335288 -33.822370058717745 0 -1 0
96 32 1 -0.3256 -20.719679459735005 54.076382417252084 -35.93412186616659 0 -1 0
1072 358 1 -0.3256 -6.1086488572786894 55.180869780359096 -35.83094420600605 0 0 0
1073 358 2 0.6512 -6.195014259563781 55.988127620551715 -36.64469742620099 0 0 0
1074 358 1 -0.3256 -6.277873796240363 56.80039362749931 -37.45404373185863 0 0 0
826 276 1 -0.3256 -1.4046465545070208 54.841057463888866 -39.93902244582249 0 0 0
846 282 1 -0.3256 -7.237971695002282 58.47533840037697 -41.28930817803978 0 0 0
827 276 2 0.6512 -2.405797495476526 54.73324947238019 -39.38535254247632 0 0 0
828 276 1 -0.3256 -3.407727383121213 54.62763576856411 -38.83164681785473 0 0 0
845 282 2 0.6512 -8.016885941902643 57.81972732150311 -40.75418807315765 0 0 0
844 282 1 -0.3256 -8.798679483819205 57.16757523812162 -40.22088720929832 0 0 0
824 275 2 0.6512 -17.91672127944717 8.921254776501057 -23.643211635322512 0 0 0
825 275 1 -0.3256 -18.054387347878116 7.842686269778804 -23.27231183753224 0 0 0
823 275 1 -0.3256 -17.780093065135862 9.99947760842747 -24.01636139459755 0 0 0
459 153 1 -0.3256 5.702973002706994 46.30612968369485 -1.5053208730472023 -1 1 1
1192 398 1 -0.3256 29.20401249970964 41.10734486947057 -3.6716621938554828 0 0 0
1006 336 1 -0.3256 33.138454499145595 43.79305536355522 -59.5160477169186 0 0 0
912 304 1 -0.3256 -17.87644668169216 9.233160353883012 -27.40882218563321 0 0 0
910 304 1 -0.3256 -15.822255298821444 9.744284262987088 -26.514546225218318 0 0 0
911 304 2 0.6512 -16.849806431921163 9.491435653803839 -26.962153959338497 0 0 0
1048 350 1 -0.3256 38.81054883965311 25.383280431768053 -20.45565530899681 0 0 0
1050 350 1 -0.3256 39.97083062470349 26.515582527998035 -22.084305431875165 0 0 0
1049 350 2 0.6512 39.390491135567174 25.949528310338103 -21.269902534184684 0 0 0
988 330 1 -0.3256 53.72789535745442 29.211307727476505 -21.53964146274717 -1 0 0
990 330 1 -0.3256 55.845653757675656 28.352313918623977 -21.783447854910918 -1 0 0
989 330 2 0.6512 54.78714743986621 28.782417942146832 -21.660628900153554 -1 0 0
177 59 1 -0.3256 -23.518278994669664 53.09681995067453 -29.24567470392921 0 1 0
176 59 2 0.6512 -22.887613943520797 53.91903891893158 -29.745362568147648 0 1 0
175 59 1 -0.3256 -22.269319135511374 54.743760592911684 -30.257373876437516 0 1 0
887 296 2 0.6512 -8.237491567111716 40.94060230814229 -24.91090488200842 0 0 0
888 296 1 -0.3256 -7.3820523792845885 41.396803568140605 -24.29381042018541 0 0 0
886 296 1 -0.3256 -9.091814232392128 40.48395178324606 -25.529288614663912 0 0 0
1152 384 1 -0.3256 8.873932145308936 29.19762961274206 -14.62568984850967 0 -1 1
1150 384 1 -0.3256 9.048895999860505 29.88290518787152 -12.440861036276946 0 -1 1
1151 384 2 0.6512 8.965184647949297 29.544399124251687 -13.534377528816337 0 -1 1
934 312 1 -0.3256 24.198149891629225 43.495570050397745 -27.906708993924667 0 0 0
935 312 2 0.6512 24.310943509947382 42.37839857929588 -27.66265577831643 0 0 0
936 312 1 -0.3256 24.421362929989005 41.26063499723795 -27.420456323586322 0 0 0
1076 359 2 0.6512 -23.73109332899128 56.9906340528645 -29.47562015506016 0 0 0
1077 359 1 -0.3256 -23.675622258712 56.745194847626976 -28.35291368402401 0 0 0
1452 484 1 -0.3256 11.154178530072507 27.683085151836753 -59.17298243853094 0 0 1
929 310 2 0.6512 -25.284637036540406 59.11419250809221 -24.160698504549877 0 0 0
80 27 2 0.6512 -49.355978216765536 10.770808061300935 -19.54829287162113 0 3 -1
81 27 1 -0.3256 -49.09810926528717 9.622160961129575 -19.544735472563474 0 3 -1
928 310 1 -0.3256 -26.192091768966115 59.70408917060822 -24.547361814559565 0 0 0
978 326 1 -0.3256 -44.471308325242894 4.26570429666865 -9.729965071100807 0 0 0
919 307 1 -0.3256 -17.486377020607204 8.918734729475922 -15.674029234616327 0 0 0
920 307 2 0.6512 -18.344871784130902 8.723654174569862 -14.935053354812922 0 0 0
921 307 1 -0.3256 -19.203418740667058 8.52998783317061 -14.196071680371162 0 0 0
454 152 1 -0.3256 -8.952991496548314 2.838700356274072 -15.37702292148403 0 0 0
863 288 2 0.6512 -9.241871621877939 5.742913046677612 -11.44259817294649 0 0 0
864 288 1 -0.3256 -8.870333147982265 5.156406102150201 -12.35859163564366 0 0 0
455 152 2 0.6512 -8.776863543172512 3.7794580363250585 -16.012893849567686 0 0 0
456 152 1 -0.3256 -8.603229792068907 4.719579702884818 -16.650593748942477 0 0 0
862 288 1 -0.3256 -9.612252953080265 6.3294515437039 -10.52632990246924 0 0 0
923 308 2 0.6512 5.9697695087495575 5.246368206841712 -9.253197646051431 0 0 0
924 308 1 -0.3256 6.978103691073022 5.553792053344963 -9.7103116707819 0 0 0
291 97 1 -0.3256 24.717547798431234 0.49201764012008 -17.187277641026235 0 0 0
139 47 1 -0.3256 40.28139257728508 10.151618714470809 -7.559964021506333 0 0 0
141 47 1 -0.3256 40.033146860849 9.835828344192679 -5.296668010094574 0 0 0
140 47 2 0.6512 40.15703427024363 9.993960739718135 -6.428314878752811 0 0 0
795 265 1 -0.3256 -12.390468517272893 14.051750433219663 -14.654839800664359 0 0 0
794 265 2 0.6512 -12.430172558991202 14.451917652848643 -15.731351876069795 0 0 0
793 265 1 -0.3256 -12.46811630546094 14.852725330173197 -16.807574654313722 0 0 0
1090 364 1 -0.3256 -14.737349905299796 11.540856407686537 -15.572534995813886 0 0 0
1091 364 2 0.6512 -14.766656622840692 10.579292322504156 -14.943583253467022 0 0 0
1092 364 1 -0.3256 -14.794289124973439 9.618919577390292 -14.31293813648306 0 0 0
1087 363 1 -0.3256 33.465521937898316 11.567191849810708 -15.243204819871016 0 0 0
1088 363 2 0.6512 33.29759150236739 11.933036778475616 -14.167049387754123 0 0 0
1089 363 1 -0.3256 33.12944887309214 12.299437250981146 -13.091099430966306 0 0 0
1479 493 1 -0.3256 -45.56225506227443 24.78246537603333 -17.579988355699726 0 0 0
1478 493 2 0.6512 -45.80796921220775 25.895737373799438 -17.436527236020186 0 0 0
1477 493 1 -0.3256 -46.044707999091926 27.009080241581284 -17.27899348125816 0 0 0
490 164 1 -0.3256 -24.567256744949113 26.920824549897894 -10.059134717682378 1 -1 1
491 164 2 0.6512 -25.541884648795737 26.762494375429945 -9.469089708908104 1 -1 1
492 164 1 -0.3256 -26.515459689150862 26.60347793941693 -8.877247180155193 1 -1 1
1082 361 2 0.6512 -8.18514940512706 19.49661124876072 -2.616304799587017 0 0 0
1083 361 1 -0.3256 -8.982993413833134 19.023697329812716 -1.9378003582776935 0 0 0
933 311 1 -0.3256 -51.20761304092697 30.949188643568398 -15.522159766621607 0 0 0
931 311 1 -0.3256 -50.332319948600144 28.97658881260895 -14.732170664311766 0 0 0
932 311 2 0.6512 -50.76868463119315 29.963043153723813 -15.12828123432794 0 0 0
1447 483 1 -0.3256 -38.19546038969373 44.47769258807644 -30.679726445215465 0 3 1
1448 483 2 0.6512 -38.61607921698607 44.12554527114221 -29.627707254633066 0 3 1
1449 483 1 -0.3256 -38.99967484938295 43.717118235762115 -28.591390380591854 0 3 1
803 268 2 0.6512 30.331312017679164 34.71906958747364 -14.4484976363694 0 0 0
802 268 1 -0.3256 29.35276465564042 34.65595964143231 -15.047771508175776 0 0 0
135 45 1 -0.3256 24.152445368575325 33.11281267969583 -9.780197237684492 0 -1 0
134 45 2 0.6512 25.16875211604194 32.60779444840029 -9.875547922925193 0 -1 0
804 268 1 -0.3256 31.344096221452574 34.74794031740153 -13.90627151348707 0 0 0
348 116 1 -0.3256 3.5661791476635036 49.189597568094094 -21.32999817816872 1 0 -1
347 116 2 0.6512 2.8487752291452035 48.64334160144234 -20.624403073211774 1 0 -1
346 116 1 -0.3256 2.125457693807951 48.10312891160766 -19.91971270594586 1 0 -1
1219 407 1 -0.3256 54.40053841377939 45.41137300699624 -10.476916658567589 0 2 0
1221 407 1 -0.3256 56.63596491164062 45.404003471524284 -9.94603146416831 0 2 0
1220 407 2 0.6512 55.51707160535129 45.40662553577757 -10.208627502175 0 2 0
973 325 1 -0.3256 -27.912440216288648 54.75367780243888 -15.357115629359752 0 0 0
974 325 2 0.6512 -26.926194232260528 55.10959859927235 -14.88600029713115 0 0 0
975 325 1 -0.3256 -25.93689500378115 55.46033131107619 -14.41755724423547 0 0 0
121 41 1 -0.3256 -28.46399039322332 56.41527128371703 -12.870930482870994 0 -1 0
123 41 1 -0.3256 -29.446277064281528 56.75803101349525 -10.822183265840376 0 -1 0
122 41 2 0.6512 -28.955947796778066 56.586653518800105 -11.846821949517848 0 -1 0
906 302 1 -0.3256 39.718732103283074 51.686341918559705 -11.951551252985773 0 0 0
905 302 2 0.6512 39.76005215982455 50.815961601501996 -11.202569177241733 0 0 0
904 302 1 -0.3256 39.80210151692628 49.94575744244482 -10.45341702223484 0 0 0
976 326 1 -0.3256 -43.19314816244714 6.174038267134033 -9.805880175207417 0 0 0
977 326 2 0.6512 -43.832435091527955 5.2200259360279935 -9.767379917103485 0 0 0
1013 338 2 0.6512 -22.395133326888207 6.155033803107755 -2.8992111378569363 0 0 0
1014 338 1 -0.3256 -23.041413432331282 6.605194108907892 -2.0626469856267025 0 0 0
1012 338 1 -0.3256 -21.747146313212646 5.6995624976321135 -3.731500929168302 0 0 0
1030 344 1 -0.3256 -6.3173354031390225 7.185038720198877 -4.3003426838752645 0 0 0
1031 344 2 0.6512 -5.835403510363304 8.190307499561234 -4.579566538867774 0 0 0
1032 344 1 -0.3256 -5.354020251799264 9.196171179926084 -4.856751786469529 0 0 0
922 308 1 -0.3256 4.961225007347314 4.9388700952561235 -8.796581421364213 0 0 0
1142 381 2 0.6512 -39.36247457185946 8.77418562353418 -10.117142344077767 0 0 0
1141 381 1 -0.3256 -38.87356335822931 9.039650884353907 -11.122795149567942 0 0 0
1143 381 1 -0.3256 -39.85145777676286 8.507579790032816 -9.112013630689749 0 0 0
349 117 1 -0.3256 14.329497242353568 53.881865471310576 -22.485066091038064 0 -1 0
79 27 1 -0.3256 -49.51338993226954 11.907795295471816 -19.59921033993676 0 3 -1
351 117 1 -0.3256 14.440620058104283 55.903280014707974 -23.57243772270659 0 -1 0
992 331 2 0.6512 28.880961839331995 14.745789440857822 -4.052033001236115 0 0 0
993 331 1 -0.3256 28.897790557212964 15.51026874612353 -3.1961231945357853 0 0 0
1015 339 1 -0.3256 24.886652036759468 13.059644512781556 -0.7138411810462306 0 0 0
1016 339 2 0.6512 23.951200066195472 13.321678953669679 -1.3274426834208752 0 0 0
1017 339 1 -0.3256 23.017850916619746 13.584757679382838 -1.9437653335536038 0 0 0
991 331 1 -0.3256 28.86333246526061 13.982107035920276 -4.908571876738086 0 0 0
1081 361 1 -0.3256 -7.387242065617358 19.96884206004066 -3.2952859243780384 0 0 0
853 285 1 -0.3256 56.13202703660768 23.83475466498142 -1.7438778255076062 0 0 0
854 285 2 0.6512 56.45646592570721 24.28239231873608 -2.751140356390563 0 0 0
855 285 1 -0.3256 56.780588237513555 24.729755785623396 -3.7586418784299003 0 0 0
901 301 1 -0.3256 -33.711841578976326 34.2012101256287 -2.314483636307636 0 0 0
903 301 1 -0.3256 -33.94822003606691 32.16608137870424 -3.3557686289753716 0 0 0
902 301 2 0.6512 -33.83133087628476 33.18332474092671 -2.83410811055009 0 0 0
963 321 1 -0.3256 1.384757419794625 37.7828609215332 -7.88625455892526 0 0 0
962 321 2 0.6512 0.6825259628438858 37.54175051389121 -8.763050868256721 0 0 0
961 321 1 -0.3256 -0.020084278147064566 37.300575087746644 -9.639750475610576 0 0 0
133 45 1 -0.3256 26.11388870052351 31.98879788454246 -10.10297162932293 0 -1 0
1046 349 2 0.6512 37.421591091427665 36.068972101684786 -4.635973376665147 0 0 0
1045 349 1 -0.3256 37.79391003193418 36.08448808530861 -3.549073505894817 0 0 0
1047 349 1 -0.3256 37.048813367619616 36.0539464939102 -5.722735884536794 0 0 0
1034 345 2 0.6512 43.28928620614259 48.07353639451261 -6.970914908407505 0 0 0
1035 345 1 -0.3256 42.31277493720193 47.56853040834981 -7.305093005667821 0 0 0
1033 345 1 -0.3256 44.266974869346555 48.576942035363984 -6.63741073197061 0 0 0
1433 478 2 0.6512 -37.42366430508743 56.20521495264277 -0.930200580896714 0 0 0
1434 478 1 -0.3256 -37.41928959833979 56.24558383670922 -2.0781985613438665 0 0 0
780 260 1 -0.3256 -25.04521562441096 51.47424058366261 -6.917195838104617 0 0 0
779 260 2 0.6512 -23.909584092626254 51.649319453472565 -6.927467985231005 0 0 0
778 260 1 -0.3256 -22.773671078867615 51.823633693107645 -6.937433584995874 0 0 0
585 195 1 -0.3256 -16.369509718386414 53.73152050487653 -5.309345372341454 0 -1 0
589 197 1 -0.3256 -19.267746430349504 52.4914640966931 -8.253840123283966 1 -2 -1
590 197 2 0.6512 -18.85973090604854 51.577824623539705 -7.685988077951223 1 -2 -1
583 195 1 -0.3256 -16.66695875507955 55.54097724760283 -3.9238011555476673 0 -1 0
591 197 1 -0.3256 -18.404594771829018 50.665391293023326 -7.1528306130962 1 -2 -1
584 195 2 0.6512 -16.518248993772215 54.63317721466207 -4.612237285660028 0 -1 0
1292 431 2 0.6512 -7.192176391847699 7.561869724342758 -1.3417764553343203 0 0 0
792 264 1 -0.3256 32.04392702212977 48.58802527694678 -6.000390078357645 0 0 0
790 264 1 -0.3256 31.56170072894161 50.759512778971356 -6.581264601269518 0 0 0
791 264 2 0.6512 31.80337776690148 49.67346378742973 -6.292623155619007 0 0 0
1240 414 1 -0.3256 27.230379180694182 52.982287379700956 -6.065778085327411 0 0 1
1242 414 1 -0.3256 26.700577499353873 51.76418879516554 -4.190049000569472 0 0 1
1241 414 2 0.6512 26.96289948713723 52.37298630272643 -5.128848052532587 0 0 1
350 117 2 0.6512 14.37550474607883 54.896704321200886 -23.02182937679952 0 -1 0
100 34 1 -0.3256 -43.34113829449989 25.720229961140095 -55.9322759744385 0 0 1
1444 482 1 -0.3256 50.82567157909958 0.26144588291347565 -26.347870302314302 0 0 1
889 297 1 -0.3256 -3.254392739153001 21.5267812581095 -59.92924586868268 0 0 0
1357 453 1 -0.3256 -41.006826975849506 7.058291726690722 3.6049835710638636 1 0 0
1359 453 1 -0.3256 -40.60991415712193 6.317370165871424 5.74401545054547 1 0 0
1358 453 2 0.6512 -40.809000473996484 6.691508959224063 4.675749158613988 1 0 0
723 241 1 -0.3256 -41.719230253322145 8.468813138058154 9.94134179926923 1 0 0
1270 424 1 -0.3256 -25.75513271617125 9.402169411401477 5.970389471353538 0 0 0
1271 424 2 0.6512 -24.924657127729688 8.671720046977969 5.658517681479455 0 0 0
1272 424 1 -0.3256 -24.09379307407539 7.938826356725333 5.35395273850129 0 0 0
1336 446 1 -0.3256 -3.159194822551446 0.28838295806824393 5.682252998248349 0 0 0
1316 439 2 0.6512 33.66272621011959 54.80869826928901 2.2595972842901464 1 -2 2
1315 439 1 -0.3256 33.85812117761386 53.991343631483325 3.056321157055062 1 -2 2
841 281 1 -0.3256 -40.51269313228769 44.94793760171118 49.8759444528878 0 0 -1
27 9 1 -0.3256 53.910051900872716 3.0278971623406647 3.0978538290533506 -1 0 0
26 9 2 0.6512 54.371850287101495 2.4611876717631755 3.9821718687903473 -1 0 0
25 9 1 -0.3256 54.82541726011868 1.8786498125727853 4.86015620850517 -1 0 0
63 21 1 -0.3256 -41.56195710297369 21.06867677256316 13.437493506671627 1 0 0
815 272 2 0.6512 -30.237391414177523 16.36630193591686 16.789632103151252 1 0 1
816 272 1 -0.3256 -30.571245277452245 17.269744314225182 16.162036013185652 1 0 1
1400 467 2 0.6512 -3.70721750946256 19.02477675102364 4.649854779399883 0 0 0
1399 467 1 -0.3256 -4.334094230372756 18.81288566678892 5.589322376725591 0 0 0
662 221 2 0.6512 -5.963825216881021 25.22926813853975 9.97177703200662 0 0 0
663 221 1 -0.3256 -7.107657647489105 25.204467075240938 10.08074229417283 0 0 0
661 221 1 -0.3256 -4.819163890458783 25.253133300171235 9.871080178639819 0 0 0
430 144 1 -0.3256 -11.709437016144243 22.582713718770773 1.4258915720414211 0 -2 -1
432 144 1 -0.3256 -11.276424861184932 24.225183461348934 2.975841902278678 0 -2 -1
431 144 2 0.6512 -11.492837355398343 23.402592925852936 2.202203943630043 0 -2 -1
1435 479 1 -0.3256 -56.7384467020076 47.48043182642659 51.22309886378032 0 0 0
822 274 1 -0.3256 41.32088999039464 41.02264480499697 55.69638875200976 0 0 -1
571 191 1 -0.3256 31.86401628709142 46.26650436449522 56.21090403879966 0 -1 0
1259 420 2 0.6512 10.301934665967634 41.368130905426156 4.010327766729774 0 0 0
1260 420 1 -0.3256 10.582431135216263 40.4264457924059 4.605930839861944 0 0 0
1216 406 1 -0.3256 20.160320450213234 40.33464892339831 3.493680854144668 0 0 0
1217 406 2 0.6512 21.047165368013783 40.19212781882943 4.212195871275266 0 0 0
1218 406 1 -0.3256 21.932045953235527 40.049174967271895 4.9330702185891795 0 0 0
753 251 1 -0.3256 54.9753182594261 51.76522438237501 8.869638453316934 0 2 -2
752 251 2 0.6512 54.3521311809933 50.93544929704038 8.388083131315181 0 2 -2
1258 420 1 -0.3256 10.018939963978275 42.310152957967425 3.4165707803334793 0 0 0
1118 373 2 0.6512 17.30969160497572 17.94901525309996 10.410371617225477 -1 1 2
835 279 1 -0.3256 42.323853166737024 52.07364088500658 56.53044937396009 0 0 -1
837 279 1 -0.3256 42.94022248173013 52.27887786561226 58.73516167896424 0 0 -1
785 262 2 0.6512 40.15540669162264 50.17464011709626 10.397385788342193 0 0 0
786 262 1 -0.3256 40.2911418744284 51.24900282419132 10.013015726789067 0 0 0
918 306 1 -0.3256 58.97622477167733 44.4212823458965 11.523185705726865 0 0 0
917 306 2 0.6512 59.887640941142465 43.88410360447838 11.074602374940918 0 0 0
1432 478 1 -0.3256 -37.4285643535123 56.16449204291441 0.21853757971923804 0 0 0
390 130 1 -0.3256 -16.1047075035471 49.713133677529385 6.879062290934553 0 -1 0
389 130 2 0.6512 -17.047398842959122 49.073100380091105 7.029388393970396 0 -1 0
388 130 1 -0.3256 -17.991504401906102 48.434249367027995 7.175900657282781 0 -1 0
721 241 1 -0.3256 -42.55705401964262 8.280485844907906 7.808891787142306 1 0 0
722 241 2 0.6512 -42.13636813801033 8.374510232807264 8.874479159725798 1 0 0
61 21 1 -0.3256 -42.424490944436485 22.404395186034822 15.097429672566498 1 0 0
62 21 2 0.6512 -42.0010748130572 21.73448611768381 14.264982223451794 1 0 0
1328 443 2 0.6512 -40.84886693318932 11.483213210699931 15.004787245754821 0 0 0
1327 443 1 -0.3256 -41.82332152379499 11.700722736964192 14.435726547695145 0 0 0
1329 443 1 -0.3256 -39.874108622249594 11.265860353741019 15.573466516497087 0 0 0
814 272 1 -0.3256 -29.902249737268974 15.461366598408594 17.41437818156813 1 0 1
1401 467 1 -0.3256 -3.0810912207288883 19.238490075216504 3.710283527373827 0 0 0
1093 365 1 -0.3256 -18.249749780089132 22.144166059014204 9.229988623993236 1 0 0
1095 365 1 -0.3256 -17.88053395061907 20.875132386768204 7.357184493544984 1 0 0
1094 365 2 0.6512 -18.074787433865115 21.515401700062725 8.28774327073013 1 0 0
1364 455 2 0.6512 39.34062162369528 23.463738771460314 16.62750481100455 0 0 0
1365 455 1 -0.3256 38.666469553421734 24.160886311250728 17.243557264930345 0 0 0
1363 455 1 -0.3256 40.01574199904513 22.770856574956067 16.0076348843094 0 0 0
1110 370 1 -0.3256 35.53261569472928 20.61947168797146 19.329512153984787 0 0 2
1340 447 2 0.6512 -47.929718968053834 35.47869908837892 18.264282919061973 0 0 0
1339 447 1 -0.3256 -48.21866633178094 35.89670748863589 19.294815637772516 0 0 0
1341 447 1 -0.3256 -47.640521125028776 35.06135076436939 17.233433444867895 0 0 0
1300 434 1 -0.3256 -2.309287315156388 33.73226195403651 13.288331015277931 0 0 0
1301 434 2 0.6512 -1.3144272391362943 34.11115294480043 12.855886635912315 0 0 0
1302 434 1 -0.3256 -0.3198403993508941 34.49056591192552 12.423070010488006 0 0 0
1416 472 1 -0.3256 9.455961643480741 32.78674798524127 14.13918131917991 0 0 0
1414 472 1 -0.3256 8.278527057582512 34.66762085178679 13.538699005297278 0 0 0
1415 472 2 0.6512 8.86769660859122 33.72741661117484 13.838771763680835 0 0 0
1230 410 1 -0.3256 44.295891621494796 40.15243405739254 16.412457803271092 0 0 0
1229 410 2 0.6512 45.324456130869116 39.7677015633958 16.076164004158137 0 0 0
751 251 1 -0.3256 53.784944209635924 50.09601341173101 7.848543459141995 0 2 -2
1158 386 1 -0.3256 51.001041769398256 38.60398412605371 17.26601494981447 -1 0 0
1156 386 1 -0.3256 52.80406815773841 37.33943857179668 17.923395407211213 -1 0 0
1157 386 2 0.6512 51.902095634477796 37.971020473554944 17.594593021865542 -1 0 0
1464 488 1 -0.3256 48.80774328941266 40.53643414418139 18.85517911276372 -1 0 0
1463 488 2 0.6512 49.34430649602104 41.34660651881064 18.241783171873145 -1 0 0
916 306 1 -0.3256 -59.20352757387473 43.34454716599925 10.623666471548251 1 0 0
1309 437 1 -0.3256 -42.80846143823819 46.90301623876552 12.688187554345568 0 0 0
1310 437 2 0.6512 -43.77292775161532 47.39288861851526 12.300538781705738 0 0 0
1311 437 1 -0.3256 -44.737319505134295 47.88306270976843 11.913149553066525 0 0 0
1123 375 1 -0.3256 -31.248480316313966 52.38725793645021 11.1079551066784 0 0 0
784 262 1 -0.3256 39.97915733637584 49.11353244347426 10.80249423357224 0 0 0
1228 410 1 -0.3256 46.35354153936202 39.37229094153685 15.753468598176095 0 0 0
1145 382 2 0.6512 48.34818645650446 43.11997968766243 14.377747285918806 0 0 0
1144 382 1 -0.3256 49.30701802120076 43.74359436902416 14.484010895258162 0 0 0
1146 382 1 -0.3256 47.38378895536052 42.50355870660037 14.27106617993653 0 0 0
1462 488 1 -0.3256 49.87713019276737 42.158398943806056 17.626981309862014 -1 0 0
1125 375 1 -0.3256 -32.69829295748846 51.14938752129755 9.82428764879147 0 0 0
1124 375 2 0.6512 -31.9784402315044 51.773887225071874 10.466496140817432 0 0 0
497 166 2 0.6512 -35.05218810496662 57.976304185225366 14.304295230625488 0 -1 0
496 166 1 -0.3256 -35.667587014708985 58.1391724225453 15.261099628892783 0 -1 0
498 166 1 -0.3256 -34.437096508947974 57.810161606367096 13.347976571275266 0 -1 0
843 281 1 -0.3256 -38.38508795993475 45.533447149188106 50.518572208865876 0 0 -1
1491 497 1 -0.3256 31.09304139481133 52.45183191962829 15.048592384525936 0 0 0
1490 497 2 0.6512 32.23088989456857 52.60635201485579 15.008052900102957 0 0 0
1489 497 1 -0.3256 33.36878314558537 52.76071130335392 14.9678028096938 0 0 0
1355 452 2 0.6512 -47.646573266497874 2.7625503759555134 24.73263272287476 0 0 0
1354 452 1 -0.3256 -46.859943588361936 3.583084729334931 24.560548191937542 0 0 0
1356 452 1 -0.3256 -48.43366859944589 1.9425760129645915 24.90500991516251 0 0 0
444 148 1 -0.3256 -35.72074196905856 2.6461671440736922 21.90870956250209 0 0 0
443 148 2 0.6512 -35.93850924285329 2.8214913910432173 23.023232167848406 0 0 0
442 148 1 -0.3256 -36.157365763479234 2.994568094693226 24.1379578468488 0 0 0
527 176 2 0.6512 -54.28964121286405 4.401419228660717 2.081757482598174 0 0 0
526 176 1 -0.3256 -54.68641697856184 3.3426061881460263 2.29048983012 0 0 0
842 281 2 0.6512 -39.448600025576916 45.240146636731126 50.19710599840987 0 0 -1
405 135 1 -0.3256 -8.426717864253565 3.8114054431352726 25.066726126028623 0 0 0
404 135 2 0.6512 -9.498246655430062 3.6582558272010335 25.45280432529938 0 0 0
403 135 1 -0.3256 -10.569573335530633 3.505031285864649 25.839134998584605 0 0 0
4 2 1 -0.3256 16.208053702070284 8.212419420690455 27.41171874372593 0 0 0
5 2 2 0.6512 16.215364562575505 7.40139692023109 26.59680301343351 0 0 0
6 2 1 -0.3256 16.220656278492235 6.591002136881289 25.78168382457934 0 0 0
521 174 2 0.6512 19.101042297034436 1.467753736205955 28.378189581079944 0 0 0
520 174 1 -0.3256 19.652530998405044 2.4645584394453004 28.226016062262186 0 0 0
522 174 1 -0.3256 18.551835302134116 0.46997543442189854 28.529737122699316 0 0 0
588 196 1 -0.3256 12.218267425532945 6.592425666961985 24.25918683291098 0 0 0
587 196 2 0.6512 13.194697998515375 6.1712813079460735 23.823660357528823 0 0 0
586 196 1 -0.3256 14.170153536990497 5.749876662175139 23.387085696832223 0 0 0
416 139 2 0.6512 19.708650479713302 5.499217673965438 28.43257600114727 0 0 0
417 139 1 -0.3256 18.9835506960673 5.551770953444461 27.542033161386666 0 0 0
415 139 1 -0.3256 20.433410191700226 5.447426699008044 29.323074678890592 0 0 0
508 170 1 -0.3256 -19.271376269244968 21.690090822482812 33.69242054367478 1 0 0
745 249 1 -0.3256 -17.974094235612146 13.940701600524072 21.131503407005695 0 0 0
509 170 2 0.6512 -19.854739769561903 21.62508750732105 32.703794587332325 1 0 0
746 249 2 0.6512 -18.252229691383597 12.840559085497588 20.952426410763675 0 0 0
747 249 1 -0.3256 -18.526645484651603 11.739531859489787 20.770921447101863 0 0 0
546 182 1 -0.3256 -25.59659547168566 16.829390209624506 20.1857435600352 0 0 0
544 182 1 -0.3256 -25.319022785529672 14.9004920893214 18.968454519032452 0 0 0
545 182 2 0.6512 -25.44730890597225 15.878660734542265 19.55769385792408 0 0 0
172 58 1 -0.3256 12.57322736737201 23.207348228638423 19.534339309082846 0 0 0
173 58 2 0.6512 12.653624863716956 23.46782980580636 20.650654594814682 0 0 0
174 58 1 -0.3256 12.737207640159948 23.724500760850056 21.767942246163262 0 0 0
1457 486 2 0.6512 28.58910478785453 14.880240037905624 25.63121691043629 0 0 0
1456 486 1 -0.3256 29.337663480413163 15.402606273244972 26.32946178665333 0 0 0
1458 486 1 -0.3256 27.839697196920827 14.356735724162213 24.934812321778566 0 0 0
1149 383 1 -0.3256 34.54956224899533 12.296301609444647 27.130876762746222 0 0 0
1148 383 2 0.6512 34.256008036427666 12.881558554984778 26.186076084878472 0 0 0
1147 383 1 -0.3256 33.96231494540503 13.466420279673342 25.24104472628088 0 0 0
510 170 1 -0.3256 -20.439369901428424 21.561288813239226 31.71550420378314 1 0 0
1036 346 1 -0.3256 9.728303726246427 33.26221811463954 25.10749870320755 0 0 -1
1424 475 2 0.6512 17.849372823779373 23.163649076113252 27.50251972172473 0 0 0
1423 475 1 -0.3256 18.900810990287013 22.75183421052282 27.715035536701723 0 0 0
1425 475 1 -0.3256 16.798247375183983 23.576810427027674 27.291363547388396 0 0 0
1037 346 2 0.6512 9.441739385831399 32.4594533026511 24.33618078298906 0 0 -1
1135 379 1 -0.3256 41.64883942571191 23.569398028118158 25.143641958025142 0 0 0
1136 379 2 0.6512 40.73959015686953 23.63208728519697 24.44327234836757 0 0 0
1137 379 1 -0.3256 39.82801233856852 23.694324416709446 23.74638532105731 0 0 0
1109 370 2 0.6512 35.632019627339616 20.32303703815253 20.436846562620648 0 0 2
1108 370 1 -0.3256 35.76746579898944 20.065654227960742 21.55329877992781 0 0 2
1252 418 1 -0.3256 -50.339151361714535 34.453101150241416 21.562175799862505 0 0 0
1253 418 2 0.6512 -50.70933953188646 34.794552155880965 22.59493795826293 0 0 0
1254 418 1 -0.3256 -51.08083414246715 35.13501118926446 23.627662864602595 0 0 0
1323 441 1 -0.3256 -9.17443954410984 35.4749970389738 22.859491174759267 0 0 0
1154 385 2 0.6512 -10.801241205617089 33.25128515687971 29.678442742483007 0 0 0
1322 441 2 0.6512 -9.548038362319923 36.52856839948929 22.59314356764458 0 0 0
1153 385 1 -0.3256 -10.252717986927792 32.512963870924374 30.367844759983683 0 0 0
1321 441 1 -0.3256 -9.922003662784736 37.58280524788718 22.328562874577496 0 0 0
436 146 1 -0.3256 21.617470801134754 44.29145461595616 29.955256425095023 1 0 0
437 146 2 0.6512 20.66560616144949 44.43710848648337 30.563912854803096 1 0 0
438 146 1 -0.3256 19.72717574623396 44.511689422541544 31.212993639628234 1 0 0
1204 402 1 -0.3256 -46.219040110133925 45.910996647504284 29.22761053938473 0 0 0
313 105 1 -0.3256 -35.520330643965835 42.863138929735406 23.83879435817749 1 -1 -1
1205 402 2 0.6512 -46.11445957761292 45.13092761437912 28.39040739820385 0 0 0
315 105 1 -0.3256 -36.749121829845606 41.43776679488898 22.519842393240395 1 -1 -1
314 105 2 0.6512 -36.13369092541007 42.15110173090635 23.177680670979814 1 -1 -1
181 61 1 -0.3256 -17.474617313896314 50.65890991251314 15.028370081229232 1 1 -2
182 61 2 0.6512 -18.169422832498686 49.73610684856448 15.059342180573246 1 1 -2
183 61 1 -0.3256 -18.853905763926065 48.846327550593934 15.288734120812933 1 1 -2
773 258 2 0.6512 30.061319496425973 47.89469895982188 29.55816180094362 0 0 0
774 258 1 -0.3256 30.06343197876302 48.40531518724444 28.522613380963502 0 0 0
1182 394 1 -0.3256 55.11377865325959 52.08253458680449 22.526717016209364 0 0 0
1181 394 2 0.6512 55.89215601143082 52.338127020485096 21.72110028447012 0 0 0
1180 394 1 -0.3256 56.67193153867666 52.59322563706405 20.91664008581112 0 0 0
1130 377 2 0.6512 -49.465344920900264 57.44259850699614 14.514758590846979 1 0 -1
1131 377 1 -0.3256 -48.919268241923255 58.16732137210731 15.220350594537557 1 0 -1
1129 377 1 -0.3256 -50.010226000523765 56.71771247460287 13.808521239596583 1 0 -1
573 191 1 -0.3256 30.45290954673937 45.994025894148734 54.417596409013626 0 -1 0
1314 438 1 -0.3256 -30.05652864507248 9.25826372574189 31.206058165409814 0 0 0
1313 438 2 0.6512 -30.912422967279575 8.786162070201822 30.601624595546838 0 0 0
1312 438 1 -0.3256 -31.766744183042203 8.31539605281067 29.9943063174981 0 0 0
105 35 1 -0.3256 -9.581037838088942 3.50660972087311 30.643542879024565 1 -1 -1
104 35 2 0.6512 -9.605610259090517 4.4473249136976865 31.302380960142347 1 -1 -1
103 35 1 -0.3256 -9.628245090866294 5.389802844811036 31.958806197988203 1 -1 -1
1281 427 1 -0.3256 12.577491788122856 5.900414774204789 38.2055469673444 0 0 0
594 198 1 -0.3256 53.62909470412962 7.317170766244373 36.53124230084581 0 0 0
593 198 2 0.6512 53.23127954950375 8.22433062435744 35.948857100503105 0 0 0
592 198 1 -0.3256 52.8324714778268 9.131098773363519 35.36675878046859 0 0 0
744 248 1 -0.3256 -29.688407159542148 11.690864755992521 28.6355077928186 0 -1 1
743 248 2 0.6512 -29.214307654475867 10.646343537840549 28.55568683825407 0 -1 1
742 248 1 -0.3256 -28.74693186912909 9.598470135060515 28.478022753885124 0 -1 1
1201 401 1 -0.3256 -18.748473390102795 11.508690995736663 35.447999690408935 0 0 0
1202 401 2 0.6512 -18.667785296479444 10.885216159919732 36.40988236591547 0 0 0
1203 401 1 -0.3256 -18.587304915753776 10.260663191216336 37.37109598572143 0 0 0
1303 435 1 -0.3256 10.11196166195456 18.338365745796526 37.953846394190556 0 0 0
1304 435 2 0.6512 10.645601320177175 19.221348221794763 37.44807433196592 0 0 0
1305 435 1 -0.3256 11.177834748251966 20.107594711041347 36.946532893632146 0 0 0
1195 399 1 -0.3256 33.293048391944595 19.021373143106228 39.53541527254916 0 0 0
558 186 1 -0.3256 44.036619071469794 12.278796149052132 33.02310176988817 0 0 0
557 186 2 0.6512 44.98083831269613 12.916889268058826 33.173592549676705 0 0 0
556 186 1 -0.3256 45.926222025360666 13.55065646773366 33.32801137022797 0 0 0
1388 463 2 0.6512 42.14527816832315 16.493265228416476 32.851516639700094 -1 0 0
1387 463 1 -0.3256 43.01727881142173 16.66734643994834 32.12351401006104 -1 0 0
1389 463 1 -0.3256 41.27555790479251 16.318350561192013 33.582567799783014 -1 0 0
1275 425 1 -0.3256 41.57268362723287 20.756957281972042 34.48857092607207 0 0 0
1288 430 1 -0.3256 46.77219799019296 18.689237954113384 34.820599376471776 0 0 0
1289 430 2 0.6512 46.90306655012164 19.527930404386183 35.59514858645596 0 0 0
69 23 1 -0.3256 -53.98618060176583 13.348727741940719 36.01565098061989 0 -2 0
68 23 2 0.6512 -53.93229873273177 13.409511075475374 37.161500843195775 0 -2 0
67 23 1 -0.3256 -53.86040371522703 13.47490423578006 38.30610585931179 0 -2 0
1120 374 1 -0.3256 -33.42111295288389 29.08427580995569 38.801930208104224 0 0 0
1121 374 2 0.6512 -33.32979117083923 29.658953751573605 39.79265580071715 0 0 0
1459 487 1 -0.3256 -7.032489772113307 29.851266190870113 38.77558127684964 0 0 0
1038 346 1 -0.3256 9.15308761725498 31.657670624619207 23.564774132100403 0 0 -1
1197 399 1 -0.3256 35.06133932089334 18.398913411069696 38.20548799069294 0 0 0
1496 499 2 0.6512 24.478401652463436 22.681857009004524 40.91837163788973 0 0 0
1495 499 1 -0.3256 24.897052385792225 21.615788005765868 40.82548976367031 0 0 0
1196 399 2 0.6512 34.17646551698754 18.70937982378702 38.869891301040155 0 0 0
111 37 1 -0.3256 47.1713234162636 20.231688392568277 31.65989546981305 0 -1 -1
109 37 1 -0.3256 44.91302613282984 20.420495535781537 32.0677943823513 0 -1 -1
110 37 2 0.6512 46.03898829062378 20.325746328573512 31.848304989731492 0 -1 -1
1407 469 1 -0.3256 43.8317334665862 33.94767084631432 38.784093833653614 0 0 0
1273 425 1 -0.3256 42.225197350483334 19.495367435802702 32.68280024722972 0 0 0
674 225 2 0.6512 45.420429168480986 23.78858749482015 36.022833674384195 0 -1 0
675 225 1 -0.3256 45.347452994813885 23.327727052378986 34.97250554808947 0 -1 0
673 225 1 -0.3256 45.49336960542741 24.255454835623055 37.070148173153974 0 -1 0
1274 425 2 0.6512 41.8990370629978 20.12745689176307 33.584612012368865 0 0 0
1290 430 1 -0.3256 47.02993109461756 20.36876460654259 36.368109850113626 0 0 0
709 237 1 -0.3256 55.2316831024028 42.20784011698704 31.16200190811626 -2 0 1
710 237 2 0.6512 56.37183966568787 42.407254194146645 31.05038600810203 -2 0 1
711 237 1 -0.3256 57.51205251384456 42.587594545087846 30.91723682677876 -2 0 1
1297 433 1 -0.3256 -41.57089572740518 36.471327587517706 42.264467655971195 0 0 0
1155 385 1 -0.3256 -11.346397769270729 33.993394238379736 28.99043574526515 0 0 0
983 328 2 0.6512 9.357549771193318 35.52176425831315 38.33780636977535 0 0 1
984 328 1 -0.3256 9.55675596436107 34.48688923912425 38.801506692741995 0 0 1
982 328 1 -0.3256 9.13046581023124 36.52847545984437 37.82892815888964 0 0 1
1190 397 2 0.6512 16.603207355625784 37.665565392914296 43.1716354403022 0 0 0
1191 397 1 -0.3256 17.555711818788406 37.96828670923082 43.73894625223382 0 0 0
1471 491 1 -0.3256 29.071767325451038 31.551581912684295 31.85936684012072 1 0 0
1473 491 1 -0.3256 29.24866151649053 30.55315271710903 33.922180998456376 1 0 0
1472 491 2 0.6512 29.16662250632475 31.049582964922323 32.8888733273358 1 0 0
1406 469 2 0.6512 43.68197498284816 34.80460729666824 39.53482625890878 0 0 0
1405 469 1 -0.3256 43.53047205252261 35.65207508383611 40.29586288841823 0 0 0
1206 402 1 -0.3256 -46.01015644140159 44.35224629476576 27.551770996455403 0 0 0
1266 422 1 -0.3256 -46.802836498248176 38.209789969393256 30.021918584957305 0 0 0
1265 422 2 0.6512 -46.64959435481313 39.341584917039384 30.152500297457003 0 0 0
1264 422 1 -0.3256 -46.49743519018333 40.47387155236617 30.280670544942435 0 0 0
1226 409 2 0.6512 10.509167308859979 48.796928755794916 40.0354898092569 0 0 0
1225 409 1 -0.3256 9.768353095259293 47.91884934623229 40.04804218838117 0 0 0
772 258 1 -0.3256 30.057229246440826 47.384443717363474 30.593764532280243 0 0 0
1179 393 1 -0.3256 12.154010597611123 43.74502935491048 38.25363518401081 0 0 0
1224 408 1 -0.3256 -20.82288883528187 50.77144391064122 36.412816828595545 0 0 0
1222 408 1 -0.3256 -22.85161160371998 51.829135758273765 36.19193224383029 0 0 0
1223 408 2 0.6512 -21.837384935765396 51.30008864513091 36.30234032834806 0 0 0
1342 448 1 -0.3256 -8.895611427171284 4.956648562628487 47.11890811993135 0 0 0
1343 448 2 0.6512 -8.609533025416463 4.010712171898209 47.70600075297763 0 0 0
1344 448 1 -0.3256 -8.329415266696177 3.062189979041783 48.29173541139256 0 0 0
1279 427 1 -0.3256 13.26418991368981 5.8498760575384 40.39887517197019 0 0 0
1280 427 2 0.6512 12.921760498931835 5.877863551716626 39.30193676442705 0 0 0
1119 373 1 -0.3256 16.216647482497383 17.588664921971606 10.47945585563764 -1 1 2
836 279 2 0.6512 42.630961798963874 52.17549209506109 57.63295834683647 0 0 -1
1317 439 1 -0.3256 33.48538005915435 55.604597807156566 1.4373996132023228 1 -2 2
88 30 1 -0.3256 30.28166542366116 0.28474923508263444 44.932230404378366 -1 -1 -1
891 297 1 -0.3256 -4.273781287455908 23.237221360092455 58.922653247657244 0 0 -1
1484 495 2 0.6512 41.9413954618272 1.932110872579559 45.8933471061751 0 0 0
1485 495 1 -0.3256 42.797565495503456 1.7274203098327245 45.15458219002666 0 0 0
1483 495 1 -0.3256 41.086910063637326 2.1371884739833007 46.633558760629754 0 0 0
1296 432 1 -0.3256 46.670695152856574 7.011546583624601 40.80772833576524 0 0 0
1295 432 2 0.6512 46.666159046032185 6.217192438948051 41.63799398648003 0 0 0
1294 432 1 -0.3256 46.662156739826635 5.4227048282430275 42.46806757789938 0 0 0
797 266 2 0.6512 -35.29034034417394 23.31641934634096 42.49006497098913 0 0 -1
796 266 1 -0.3256 -35.08630909929027 22.434509080578213 41.782097089349044 0 0 -1
798 266 1 -0.3256 -35.495669302655834 24.196277550045853 43.20031281505073 0 0 -1
1460 487 2 0.6512 -6.408390924988144 29.194055183869125 39.48200262338008 0 0 0
1461 487 1 -0.3256 -5.783516988810636 28.537955424427135 40.1887517727579 0 0 0
1497 499 1 -0.3256 24.060206864492542 23.7480477330349 41.011336083321765 0 0 0
1453 485 1 -0.3256 25.289309582681604 25.28821106374341 51.21946697818782 0 0 0
1494 498 1 -0.3256 25.741705456917206 23.46718457645857 48.849657899293106 0 0 0
1324 442 1 -0.3256 54.21459209192065 27.077705024870735 51.10168705275178 -1 0 0
1299 433 1 -0.3256 -39.878329997427095 35.931411164156685 40.806626782685235 0 0 0
1298 433 2 0.6512 -40.72620152639501 36.2003530645549 41.534091670038016 0 0 0
1122 374 1 -0.3256 -33.23798142674353 30.23401788099426 40.78316743829441 0 0 0
309 103 1 -0.3256 -13.877248012194576 38.79966598540177 47.79795350734043 0 -1 -1
352 118 1 -0.3256 -21.322551178733562 34.1975186673461 46.06345705460824 -1 -1 0
1428 476 1 -0.3256 -7.339638490759677 36.68768590973549 47.16373695791327 0 0 0
353 118 2 0.6512 -21.414324038013962 33.34963935670754 45.29391475830794 -1 -1 0
354 118 1 -0.3256 -21.4975371354887 32.50399460057625 44.521115710802036 -1 -1 0
1427 476 2 0.6512 -6.7313776913192696 37.493156878848616 47.71296820455644 0 0 0
1426 476 1 -0.3256 -6.1199958110455235 38.2972748817653 48.260734557110396 0 0 0
1189 397 1 -0.3256 15.649106889768012 37.36485328671165 42.60591505019179 0 0 0
550 184 1 -0.3256 56.307627512495465 37.65459438236136 44.643755038878886 0 -1 0
552 184 1 -0.3256 54.70963309249006 36.22219218138144 43.822022079714486 0 -1 0
551 184 2 0.6512 55.50863723671508 36.93904299316097 44.23178565540682 0 -1 0
1282 428 1 -0.3256 -55.59278323764105 48.13706728191855 46.36822500171434 0 0 0
1283 428 2 0.6512 -56.038259361631475 49.18474958745445 46.5251080595496 0 0 0
1284 428 1 -0.3256 -56.48028945758687 50.23397634735881 46.68077080712718 0 0 0
1436 479 2 0.6512 -57.054917112646095 47.58775042551675 50.12378826202906 0 0 0
1437 479 1 -0.3256 -57.37121882031113 47.697978260878656 49.02435560481266 0 0 0
1126 376 1 -0.3256 -31.785422583110257 48.06002749226778 43.74996474612185 0 0 0
1127 376 2 0.6512 -31.415919859644273 47.697464180835354 42.724194340144976 0 0 0
1128 376 1 -0.3256 -31.046424447346308 47.33501514916135 41.698337966896844 0 0 0
1402 468 1 -0.3256 -25.560980617862906 48.95569195813881 47.68905743606717 0 0 0
1403 468 2 0.6512 -24.817991309364658 49.7782648085171 47.99165301037207 0 0 0
250 84 1 -0.3256 5.887203221560887 58.48488180350651 53.79270748001731 1 0 0
252 84 1 -0.3256 7.981849438361609 59.060202379790795 53.130531045188796 1 0 0
251 84 2 0.6512 6.9382683434250305 58.77155767036867 53.47013424744227 1 0 0
441 147 1 -0.3256 19.858466748101026 40.10295385723394 38.907865492155786 0 -1 -1
1178 393 2 0.6512 11.641441320434257 43.03348171591449 37.51064857054903 0 0 0
1227 409 1 -0.3256 11.249542640432324 49.675558103546436 40.02190938924088 0 0 0
1177 393 1 -0.3256 11.128704437127123 42.321785235774435 36.768362539891314 0 0 0
1174 392 1 -0.3256 11.607420043175043 44.95277531724769 41.79455816688231 0 0 0
1175 392 2 0.6512 12.658118701522149 44.487385224439656 41.79800599390125 0 0 0
1176 392 1 -0.3256 13.708361168836598 44.021159294817075 41.80293535805809 0 0 0
439 147 1 -0.3256 21.09152370367894 41.791082279554274 39.8648316062631 0 -1 -1
440 147 2 0.6512 20.477348169757384 40.94381465734179 39.389059271708724 0 -1 -1
1362 454 1 -0.3256 27.80760681323616 53.01658988906632 46.26465922449279 -1 0 0
679 227 1 -0.3256 -27.384367475408 53.826773116639636 41.04668297900629 0 -1 0
680 227 2 0.6512 -28.06076150679966 53.688221475821884 41.96534340930651 0 -1 0
1404 468 1 -0.3256 -24.074754914928967 50.60071740994262 48.294034481202104 0 0 0
681 227 1 -0.3256 -28.73736925823368 53.5493232087047 42.88379634491199 0 -1 0
1106 369 2 0.6512 -4.2000662745339215 56.2321935536546 42.4886042209339 1 -1 -1
1107 369 1 -0.3256 -5.209973429159064 56.213891624702455 41.94076407484405 1 -1 -1
1105 369 1 -0.3256 -3.189343377607428 56.23786727486936 43.03584332155716 1 -1 -1
1360 454 1 -0.3256 28.383733285151745 50.91506952921677 45.53261423422023 -1 0 0
1361 454 2 0.6512 28.09360938286126 51.96399815754849 45.90228895067084 -1 0 0
821 274 2 0.6512 41.67486759246168 41.21220955280575 54.62036816980979 0 0 -1
539 180 2 0.6512 58.58289055775144 52.39970550038725 44.22582727859676 0 -1 0
540 180 1 -0.3256 58.44710016615992 51.25899151974676 44.249712357461526 0 -1 0
538 180 1 -0.3256 58.71832203989762 53.54045356323159 44.201355677504274 0 -1 0
1381 461 1 -0.3256 -49.88793403025981 1.981229365503327 52.34987801095382 0 0 0
1383 461 1 -0.3256 -50.20724325868497 2.42263165822795 54.58280896534589 0 0 0
1382 461 2 0.6512 -50.04779486244039 2.2023121516016606 53.46625684159184 0 0 0
1213 405 1 -0.3256 -27.999962647190117 15.59462861339109 50.24604183993335 0 0 0
1214 405 2 0.6512 -27.06775349172187 14.973239150193839 50.50111886934951 0 0 0
1215 405 1 -0.3256 -26.135511354721807 14.351928817498157 50.75640328216851 0 0 0
1185 395 1 -0.3256 -12.815665857750444 12.468167090270587 57.33279910608688 0 0 0
1184 395 2 0.6512 -13.538387531865165 13.200452191549756 57.84437779880995 0 0 0
1183 395 1 -0.3256 -14.261171019282758 13.932738512408905 58.35576940535451 0 0 0
1367 456 2 0.6512 26.3124676409725 19.31377615913912 53.88010754758023 0 0 0
1366 456 1 -0.3256 25.71427383769752 18.357342357255327 53.66179285316326 0 0 0
1374 458 1 -0.3256 46.94199190574259 16.525091463271963 56.80560084038517 0 0 0
1372 458 1 -0.3256 46.61459250536996 14.44679356347254 55.88095542696472 0 0 0
1373 458 2 0.6512 46.77765620568859 15.485557322014929 56.34435599619371 0 0 0
697 233 1 -0.3256 49.829715988695945 14.39988475834737 54.93259456822452 0 0 0
698 233 2 0.6512 49.8081755975229 14.624939613320036 53.80596241306293 0 0 0
699 233 1 -0.3256 49.78070515521576 14.846131405549402 52.678843248262716 0 0 0
528 176 1 -0.3256 -53.89639510452509 5.4617233206524896 1.8741807955953564 0 0 0
820 274 1 -0.3256 42.02057613974186 41.38848611996214 53.539471777826705 0 0 -1
572 191 2 0.6512 31.15993929185671 46.12946036207099 55.313414401271615 0 -1 0
376 126 1 -0.3256 45.030650532588155 56.905334245716276 57.97311930626927 -1 0 -2
890 297 2 0.6512 -3.763374702552418 22.382099708345812 59.49619670021987 0 0 -1
1413 471 1 -0.3256 10.912853047943818 26.233451028745055 55.53522305785703 0 0 0
1412 471 2 0.6512 10.382553437121334 26.32673504709375 56.55003359094854 0 0 0
1411 471 1 -0.3256 9.851102485970884 26.42046209509869 57.56470159710722 0 0 0
892 298 1 -0.3256 9.9509005360048 29.788866794134734 56.175463494087296 0 0 -1
893 298 2 0.6512 8.947268441192804 29.67101238592347 56.72296857926156 0 0 -1
1450 484 1 -0.3256 10.941798834961746 28.72630875916465 58.790912495289355 0 0 0
1451 484 2 0.6512 11.045204518265754 28.201124667105155 59.80777037816364 0 0 0
894 298 1 -0.3256 7.941678686387465 29.551112004184 57.26560755783168 0 0 -1
1117 373 1 -0.3256 18.408868000034424 18.293278438443227 10.35109741101895 -1 1 2
1454 485 2 0.6512 26.13962676729552 25.857807095936163 50.69585726331432 0 0 0
1455 485 1 -0.3256 26.99217414443134 26.425302428088642 50.17446423071692 0 0 0
1368 456 1 -0.3256 26.909896700177963 20.270230633662486 54.10039007445108 0 0 0
1492 498 1 -0.3256 25.88791947301574 21.714315821341486 50.328779464451756 0 0 0
1493 498 2 0.6512 25.815494186818125 22.590418543613353 49.58897937847687 0 0 0
1262 421 2 0.6512 53.62869779586175 22.09775144951731 57.75012587415677 -1 0 0
1263 421 1 -0.3256 53.84674723861044 21.033436998822815 58.12482182784565 -1 0 0
1326 442 1 -0.3256 53.15736935754006 28.206370258350315 49.40150695694914 -1 0 0
1325 442 2 0.6512 53.68649291631573 27.642169661667598 50.2513681994053 -1 0 0
1261 421 1 -0.3256 53.41011446980695 23.162230819174802 57.37623434346453 -1 0 0
308 103 2 0.6512 -13.085703567984167 38.53414471998716 47.00828117533456 0 -1 -1
307 103 1 -0.3256 -12.287370995543931 38.27257372678546 46.22388117175958 0 -1 -1
378 126 1 -0.3256 43.04604947336766 57.031121631253356 59.12387598355112 -1 0 -2
1393 465 1 -0.3256 35.65005154294281 59.79941173102511 26.958375371155206 -1 0 1
1008 336 1 -0.3256 32.55119890550414 45.81602418125729 59.56533682470425 0 0 -1
377 126 2 0.6512 44.045126949998526 56.9632404485143 58.56106606470951 -1 0 -2

Velocities

206 -0.005077901588376376 0.0020894148431083934 0.00022621740402818097
205 -0.005007081077282857 0.0008435990790058632 -0.0005282175691153423
413 -5.620133021202248e-05 0.002412710029716488 0.00276294500513908
212 -0.0018744728312538514 -7.270366946469116e-06 -0.0009963746649281511
727 -7.948649215093336e-05 7.770964185339721e-05 0.0003657748972577491
729 8.835614905819773e-05 -9.953952072760939e-05 0.0001793994882534943
728 4.055244721123741e-06 -1.7275901504097013e-05 0.0002891332467098104
150 0.0014653278937324199 -0.0002643728802119743 -0.001451667449273602
148 -0.0034694549712384446 -0.0001925883597110356 0.0009681095729486095
149 -0.0012971095809549173 -0.0001552536805191406 -1.7675298272928025e-06
229 0.002487446740144096 -0.0007708303819575515 -0.0011758039631746078
230 0.001387644029169682 9.214887666081783e-05 5.6973920583174664e-05
231 -0.0003112205517276461 0.001409192379673909 0.001419530500621904
1071 -0.002005618945030783 -0.006414346045480059 0.003396109451416737
1070 -0.0026443830813476263 0.004718382962129602 -0.0008097321960560628
1069 -0.009060191555245076 0.015809311902717216 -0.0033314432216395573
693 0.00872839081002486 0.0022884306389171997 0.0012512595978352234
640 0.0009427996884808925 1.6638107272860346e-05 -0.001258214484106109
295 -0.001756375792105441 0.0009055472788243218 -0.0002534038913785398
296 -0.0010506445885357482 0.00048429409608692983 0.00010783507549566704
297 -0.00027421337155433974 1.2612420864759054e-05 0.0005441710143145327
65 0.0012105450972814816 -0.00040799314083475 -0.00020015635068261546
66 0.0009084174226824431 -0.0006320932107785201 -0.00012922505257354145
64 0.0012973831683409738 -0.00024514034645875635 -0.0002736482622801446
425 0.0009702527297877988 -0.0009453944616466534 0.00014503602206587606
424 0.0006893236683990777 -0.0007445527262355581 7.737263102085512e-05
426 0.0012291528333551306 -0.0011315551163955054 0.00022765687506879194
1409 0.010402252948783894 -0.005545969963180037 -0.007670299976925542
1408 -0.0032202500692936715 0.0013487675115455386 -0.00363822612977243
1410 -0.012628608992085857 -0.007442941114291586 0.007587759941012073
725 -0.002528557101113706 0.0018285038562283872 7.165410744384473e-06
726 -0.0025512641123997632 0.0019918686471154055 -0.003918153652331926
724 0.0033509517273687226 0.00447704610579227 0.004197563380685376
471 0.0008880939289521843 7.848650595584682e-05 0.0013434324525903396
113 0.00015830517076270977 -0.0017670471010382473 -0.0010136523623074669
470 0.0002090846509503196 -0.00015659209326805462 0.0014136973342844389
112 0.0013837549545224841 0.0012163740787277584 0.0006435068065879615
114 -0.0009692481861530248 -0.0032019422704410304 -0.003167033899864213
412 0.0019942614399719675 0.004408975035690616 0.0004906884490255263
55 -0.0006042827879162962 -0.0008529632043248062 -0.007392171448493115
57 -0.00800759928026508 -0.005216317108308846 0.0004042336283826244
56 -0.005839114945283753 -0.0035331733633899593 -0.0009684525020242546
286 -0.0033915997843786813 -1.0217984616138873e-05 -0.0009572745706511625
287 -0.0002146357989709181 0.0003572605288176594 0.0003745965727952213
180 0.0015995193464691435 -0.0017165986626863894 -0.0023137603067567712
305 -0.0012968237055419579 0.0008964027774814781 -0.0009669350601120495
641 1.3164133292441349e-05 -0.00032077842325131325 -0.0010485188565021732
138 0.0031779803628488846 -0.0032180603548153416 -0.0037617921600091434
137 0.0014413186439650423 -0.0015891521090068976 -0.0011559004065385453
136 2.9083996024136587e-05 -0.00046519744101268735 0.0006233346250321294
304 -0.003278292089653091 0.00022239335782064603 -0.0011262990362415758
225 -0.0015632555795453344 -0.0012577425561464697 0.0007116459886678049
223 0.0021927658123058794 0.00034106463688453163 0.000913682836836604
224 0.00036333992183707256 -0.00038216345347714487 0.0007153989037270658
46 -0.0007183734062009585 0.0008876477059757548 0.00042738201823101926
47 -0.0005513595272782401 -0.00025141048139029913 8.801871180571251e-06
48 -0.0003413042900163547 -0.0015575083180804836 -0.00047460762482008737
316 -0.0006034044965219866 0.00017166345858683844 -0.0009098637808541391
317 -0.00017548436794077355 0.00037350237279248975 -0.0007295153665664091
691 0.0030694610309459805 0.0006661202590032507 0.0021759289256238963
692 0.005904559519329404 0.0014141904860494245 0.0017277003695739467
130 -0.0006490209976868686 0.0022995087346130215 -0.0010664907264647178
131 -0.0008344779562362858 0.002156578317489544 0.0007225762247441763
132 -0.0010354054464022462 0.001995441114232218 0.00267733754479838
10 0.000636159814694655 0.0020315331696266333 0.0023002729766299253
11 0.00014916931724027452 -3.3729811004895556e-06 0.0012333370236452307
12 -0.0003946697726904467 -0.0022691169592978793 3.334549478300494e-05
179 0.0015512796766184893 -0.0019978560595059255 -0.002431366796028404
178 0.0018685084842451954 -0.0022638072461053592 -0.0020777720374288815
1098 0.006187679098968582 -0.0022886549318703775 -0.007960528207204496
1097 -0.002495641489736093 -0.0008617110603317581 -0.006417498357965723
1096 -0.011098638042973617 0.0007463685983047289 -0.004991931016386914
265 -0.0026768233141151094 0.006065198202449337 -0.0024756338171862406
897 0.010300868050530928 0.003171196347467011 0.006652015254004022
318 0.0004107284021384916 0.00036855922008609786 -0.0006099185928500817
776 8.189694267226955e-05 -0.0015643763930919693 0.0016807545402618743
895 -0.00243759913401516 -0.003622675636564614 -0.002459520578881447
1445 0.002026311355029456 -0.000358862536254207 0.0035706701593203206
1446 0.007733859779098957 -0.011304742993344032 0.002005052760327837
257 -0.002541533221646457 -0.0030058198866518616 -0.0037883566962818036
258 -0.0015173406115768615 -0.003920388516830437 -0.0037482652169612074
256 -0.0006170998068931858 -0.0032165492870665424 -0.0037842783962424823
499 0.0013433271320891457 -0.014214251931878422 -0.009963087944188079
500 0.0021037353597666486 -0.001354971728118817 0.017895902123929164
1052 1.9405031386321674e-05 0.003623600498015028 -0.0009004111540225584
1053 0.001297514177632221 0.005127992844845117 2.432461956608936e-05
1051 -0.0008575891750953635 0.0024286600541152817 -0.0013847708299124992
1021 0.001098993685247213 -0.0020709423276335957 0.0024682127376227277
1023 0.001594102351863698 0.007231247528874311 0.001481889455496977
1022 0.0013714690886370367 0.002562961542571221 0.0019309961223165023
108 0.0006931000965820595 -0.0023170651715494353 2.3373979111076996e-05
1186 -0.0017383201237323829 0.004468477415867469 -0.00012827110725711243
1187 -0.0005189635412926213 0.002007198622364975 -0.00010515449588150927
106 0.0012702804873165401 -0.0019588339979536703 -0.00017436726843170043
107 0.0009111911151117265 -0.0021670523325707605 -5.5161987499623145e-05
1188 0.0008988253823222966 -0.0009106941456005339 -0.0006974095642684214
898 -0.0008009079776409898 5.907318364785338e-05 -0.0029196676718550416
900 -0.0029918951370453257 0.0030763460998537375 0.0007541514743643728
899 -0.0019642416966871587 0.0016581445388695244 -0.0010200405322957165
449 0.005479470378994908 -0.005882003914570839 0.0022115446646403473
450 0.002255115380795722 -0.015207118686211546 0.010571214219444326
448 0.01049049459226704 0.0027234046501036628 -0.0022101014678551716
501 0.003036497096920954 -0.005466644276089242 -0.009311454337367936
221 0.0020983413068745493 -0.0016117559611966497 -0.001248869505554351
222 0.002051085680616134 -0.002052593019086542 -0.002466691279907277
395 0.0002472716806629041 -0.0015685171172176858 -0.0019952164210672472
220 0.0010266486247297157 0.0012924162367809297 -5.2011101692657266e-05
396 0.0016137366552298243 -0.001668218318105049 -0.001075343912435894
394 -0.001160056820895282 -0.0015843540045550964 -0.0029971732867723143
253 0.0015793417281390605 0.0008319852132173519 -0.0003886694727155785
254 0.0005812481652395548 0.0009250451506295953 0.0017012400943779713
255 -0.00022660179829397925 0.0013622271188048955 0.004123044131811242
87 0.0015908896238807943 7.530817243494945e-05 -0.00347046372026611
273 -0.001956163151969834 0.00542340713012583 -0.011841650390158187
145 0.003438916143677315 0.002954683252468206 0.0020072549044153317
271 -0.00010064259852662064 0.0023481472712683807 0.0022684536410359515
272 -0.005672213809182543 0.0014108388710989256 -0.0010830669053021227
146 -0.001873139515212161 0.0009393274191881071 -0.000657780301054041
147 -0.006895014732387153 -0.0011429145165818123 -0.0032662814113336687
85 -0.003219350388237626 -0.0013640560927074116 0.0002467509289085667
86 -0.001662462297367749 -0.0010688053876024618 -0.0002538994987099505
685 0.0003710116466188765 6.572141860024572e-05 0.000336058121880088
687 0.007351969575676929 0.004735425144611084 -0.005619533243033388
686 0.004362767058153847 0.0034755928481541073 -0.002906855885033333
246 -0.0003143336141009566 0.0002935442186120803 0.0025786524780324065
216 0.0025071236274128005 -0.004142759221998257 0.00459304152692535
334 0.00013496284309972797 1.434080904456318e-05 -0.003674859218426095
335 0.0007921742813058928 0.0015800835089617897 -0.0013218152828015969
336 0.0009817163005006223 0.0028372882217282042 0.0004362936578982951
368 -0.0028618079134978196 -0.0015309520815218313 -0.0007488300545043921
369 0.0029508837248595396 0.0006618671813788697 -0.0008848823931776958
367 -0.008252140912064793 -0.0035908288363062178 -0.0005998392172997316
364 -0.0034321818961040793 0.004296163216402753 -0.00327604223972366
366 0.0018608093493986718 -0.0031572455234569856 -0.003214200145058594
365 -0.0007352961759846826 0.0005180630909847456 -0.003630407270497679
399 -0.006049757618493172 -0.003910101618232945 0.0002629837791457742
398 -0.006969932712625564 0.0021689641254865836 -0.005810975214747104
397 -0.007871747123820256 0.009611332384261014 -0.012504830261458289
288 0.0036970970622709227 0.0023631806617173826 0.0010627186290528216
244 -0.0008362231236542696 -0.0018882850805336878 0.001426604246145042
245 -0.0019456984527283663 -3.867052237732417e-05 0.001259898203728472
120 -0.0017431083619302951 -0.0018619977457073752 -0.0003029276940057594
119 -0.002090406964699592 0.0005237835450311956 -0.00024777215493815454
118 -0.002589035704677199 0.003630639159970808 -0.00021807296553748152
215 0.0029442691569358313 -0.0008768316189742174 -0.006817064389783735
214 0.0031289916355960387 0.0021255914046862854 -0.017981125108300376
1238 -0.004751439457093745 -0.00033748670668940736 0.00020400325694356939
1239 0.00014925295999004078 0.001194720597152014 0.0006214064496515051
1237 -0.009432377141046572 -0.0019625582001298065 -0.000419355607114014
267 -0.002659233083942879 0.0008356686438019729 -0.0005653219740386134
8 0.0025764161208790518 0.0006809885386794134 0.002601124735004758
7 0.0005554118622904019 0.000526291509453235 -0.004646802023196604
9 0.0036272864053930954 -0.0013068797644347036 0.007708276444788051
996 0.010055258441880398 0.002878023124210884 -0.0008882802227333235
995 0.006293605709585056 0.0009105978091707198 -0.0014180666387771672
241 -0.003036061472994653 -0.0006779173390834218 0.001748503021486965
242 -2.3696336694812962e-05 -0.0005410816498204303 0.0031222004016784994
243 0.0027616540734352168 -0.0004989867262587464 0.0045158301658036045
209 -0.006433254530921126 0.0039128904980330875 0.005230510501005382
210 -0.011961913790797663 0.004941850250440638 0.005896271472810407
208 -0.011730914195935629 0.005128405954401031 0.004066127175618519
23 0.00044839303648985357 -0.0007046985698052529 0.0005548028255769181
22 0.0010700566424575084 -0.0012778446637406607 0.0005042136825415475
24 -0.0002503465883007359 -0.00012919184240538166 0.0005199259758896412
1165 8.986289495346202e-05 0.0023210388914006387 -0.0006950725563294385
1166 -0.012181054155822733 -0.0038418462899185643 0.0018352356242668122
1167 -0.016265376024502735 -0.004667236653555157 0.003092378058709553
505 -0.02001593690601196 -0.0006527814251164317 0.006516159232086304
506 -0.013173755447980592 0.0007008832525139847 0.006296316761966338
507 -0.002571940755524666 0.002089182674441983 0.005707241480387255
298 -0.0009233545912268736 0.002362589520212112 0.0008243478227225703
299 -0.000858542335465537 0.000688613987506047 8.94242338807866e-05
300 -0.0012491494151591655 -0.001889830624068838 -0.0022971255469336096
58 -0.009511616604238474 -0.007032791714349543 0.014684370534335226
60 -0.010264300859182719 0.0023695699122830848 -0.0072741014459314045
59 -0.009783061552160511 -0.0021597135651951777 0.0036912208117912894
92 0.0021326183566843884 -0.0032874598188323526 0.004221605072114091
91 -0.00039873957912866376 -0.0008093255283541133 0.004756217642357348
93 0.004789815367500484 -0.00562457227740257 0.004646822742128723
52 0.0004086627128765349 -0.013005561538906203 -0.0006344144310065053
53 -0.016615207837551164 -0.00554894820518367 -0.0026718410966048746
54 -0.030760975599222893 -5.0077487663093916e-05 -0.005488928229444906
657 0.01840417917632253 -0.002777688256786907 -0.012345923117325302
656 0.008911429448048198 -0.0018176158386635434 -0.01378002323191249
655 -0.001868658138348786 -0.0021391310578139943 -0.015488653080719662
328 -0.0011279528006560868 -0.0020788197266676206 0.0011161160884771623
330 0.004390272698427528 0.0005136040742700951 -0.0001186607657808416
329 0.0012863569496642257 -0.0005704438051221855 0.0006238240813252324
35 3.6591439614683893e-06 0.00023699280214610022 -0.001108494246168195
34 0.0006020035266258507 -0.001644128559485028 -0.0007834501901972668
36 -0.0007639468597393045 0.0025474848804432466 -0.0012988948237514836
260 -0.004395097809360886 -0.003925448863370678 -0.00015520761259311359
259 -0.004547580713524391 -0.002527110304194532 0.00044552054949988394
261 -0.0038958929033605545 -0.004093401000819176 -0.0008972139900870118
342 -0.0015617295652602878 -0.0010946459871474558 -0.0009888196226743716
341 0.0019620170038118206 0.0005123156565777406 0.0007706386771969685
340 0.005813771333656695 0.0022120012052350684 0.002706241798045162
84 -0.0018695057524170957 0.0002303731553509048 0.002734270606151869
283 -0.00017656253729019436 4.922680030055546e-05 4.478124420728149e-05
284 -0.00024413574455905436 0.00016142014364955686 1.1226346614999698e-05
285 -0.0003079366803231975 0.00025760327684582607 -2.0641990102061062e-05
51 -0.0005801438992235987 -0.0002460261015518398 -0.0031003871058066378
50 -0.0033401076383484606 -0.0018156333290190439 0.0020090607599654023
875 -0.004906019997635104 0.006884509161627116 -0.0013020730508805723
874 9.968261512237725e-05 0.0004762938511666143 1.0350992780390729e-05
83 0.0007000971383364263 -0.00106085328128611 0.0023700356835651727
82 0.003645624665563785 -0.0025979164267380716 0.0018468519319182293
1248 0.005558576369556007 -0.0036813079960351654 -0.0025017832664143464
1246 0.0012918697210414893 -0.004976693618232463 -0.00026264543270354687
1247 0.0017147551679082339 -0.0035378938563719923 -0.0007005142562242051
38 -0.0008335843568248369 4.5362148850584416e-05 -0.0011548374097498121
37 0.0009708557140133586 0.0023601482085858975 -6.118138733937486e-05
184 -0.0034055250910395582 0.004686445725603561 0.004869496104963607
186 -0.0046048849457892985 -0.0017295773520765766 -0.0032531295717415525
185 -0.0040255275917380805 0.001553731986069093 0.0008855939667907272
128 0.0021906295236764676 0.0008346123864121495 -0.001229725413341179
127 9.211679211615024e-05 0.0012138918343391222 0.00040133730609144015
129 0.003928293001687795 0.0005808645812001264 -0.002620187162833562
876 -0.004084723709931899 0.010178446925926357 -0.0022578166005889407
1115 -0.00021893765894218483 -0.0014684351607175358 0.001573310334701767
1116 0.00037202268342537555 0.00042052142994469755 0.0018970517331364277
1114 -0.0006690981976599066 -0.0026896936719774268 0.001375697505359462
248 1.3639694284215517e-05 0.000347869548106808 0.0007776819462797485
247 0.000532145765283347 0.0003156176573089665 0.002228852825286177
249 -0.0005331843539233374 0.00034313443702837533 -0.0007464937896052237
385 0.005952461464130162 -0.002735506280549253 -0.006950160053241116
386 0.004680960500132604 -0.00015024448234421357 -0.0017577022713500074
387 0.0033058543370367045 0.0023808340363319263 0.0036818449578303065
39 -0.0013452755113799075 -0.002603626678956266 -0.0010747702742157981
885 9.240175040620327e-05 -0.0007350442206035027 -0.0004481542152337996
884 0.0007647037835844867 -0.0010096699000692422 -0.0008259660400995178
883 0.0015579684158714949 -0.0011913767745761424 -0.0013099495807692332
234 -0.0016523887729148646 0.0007498366240808143 0.002383593215891008
233 -0.0012206873843917674 0.0010821952889555665 -0.0002388196372207527
232 -0.0006426543652804439 0.0011917203998893637 -0.0026170597612934186
1370 -0.007328719511639313 0.004738331294289108 -0.0011533178746320734
1371 -0.00635011230347021 0.005451323272099411 -0.002910121473169954
1369 0.0007319532795160698 0.003541829821634733 -0.00043305950685504797
207 -0.005112845896795121 0.004520867565636611 0.001627617994819644
331 -0.002208194171122574 0.004365740376939774 0.0006004107391003588
579 0.0017172595831752725 0.00013190083751491252 0.0010385434290369143
578 0.0015933221875269084 0.00073911794775559 -0.0010671951281924234
642 -0.0012458724327894415 -0.0009021104251861912 -0.0010867425136800828
777 -0.0006214064516634072 -0.0030650742270443127 0.00020467810634993062
266 -0.002701473318444093 0.003442980086466522 -0.0013979726777237373
30 -0.0033264957453014695 -0.0003737737632744704 -0.00047274554484002786
994 0.0020263520252765065 -0.001232718009185335 -0.0020243511571906843
361 2.5564274979998388e-05 0.00033464117400062326 0.00038192569497053584
362 0.0009913350106103543 0.0016548277240506191 0.00033721323259458156
363 0.001749775573167443 0.002590096444480776 0.0003092917130057132
76 0.001549994012901274 -0.0032458749322999032 0.0020069985628998533
77 0.001498135444655189 -0.0032777312669125627 0.0019946574207747847
78 0.001596631294162357 -0.003019055020276376 0.0022018683843386547
337 0.0001760934089591432 -0.001148627366993463 -0.001415917706544916
339 -0.0007004389136726194 -0.0007293095624594729 -0.00040956526451123033
338 -0.00015511654759272467 -0.000983424873949599 -0.0010064342654659017
381 -0.007034711596001518 -0.004927443390138593 -0.0013231623250238283
380 -0.004198489695860006 -0.002655055575640387 -0.0001163822642780227
379 -0.0013497467217422942 -0.0006509740614427464 0.001502871430927131
623 0.0015774628579483074 0.00329010380087192 -0.0004337464718932946
622 0.0029010440880165877 -0.0022898464494173687 -0.0021408175008208515
624 -0.0002959093359853823 0.007921943326545658 0.000953575095823756
194 0.00036709211402198734 0.001843220414113491 0.0043594648093049845
193 0.0010209495749649792 -0.00037560826241450347 0.001600248637057035
195 0.00010648208543880516 0.0032488149253758337 0.00665439539238569
1211 0.0050825324138642665 -0.006989879876027232 -0.008332303290635858
1212 0.008191643734468524 -0.005397508886725501 -0.01176362437669993
1210 0.0024211514821406376 -0.015168962197811298 -0.004726873299527377
740 0.0014745848544119563 -0.005402330517989703 -0.0009085110291669926
739 0.004192623601460433 0.00029242636026794605 0.0038809331116227775
741 -0.0008333783019997029 -0.011295177212731933 -0.005069853787056773
865 0.00253781031644113 0.004196063127778891 -0.004882447125017979
360 0.0001313119794397764 -0.0013900723622852537 6.630204880681267e-05
359 -0.00022310712987840103 -0.0017470317585331554 0.00026936358079637096
358 0.00015659797892330976 -0.00016445829605794932 0.0006001448971733038
292 -0.0004850917445063597 -0.008058698085559729 0.0017402457143216071
293 -0.001139717132299068 -0.006567360295441396 0.002330973307577768
294 -0.0015041708313548014 -0.005275528245287366 0.0026740045385179666
1039 0.023050356332818676 0.004504203196506891 -0.024466102272673495
1040 -0.011356585905070292 -0.005016856715335422 -0.001067196677471874
237 -0.0025236454668003225 6.962098554917276e-05 -0.0024442717152608276
235 -0.005470393576254039 0.00035393439497633276 0.0036210194910647506
236 -0.003766368308480245 0.00024244310927903123 0.0006626702677654339
18 0.0010733531708423244 -0.0028485306826896433 -0.0015551690170019664
17 -0.0005163197995735022 -0.0010384110919415149 -0.0015470361815158981
16 -0.0020929503653753178 0.0006753759688540617 -0.0017536387380733371
49 -0.0047399112235305164 -0.004257094456300054 0.006433506866853791
33 -0.0010688496397965625 -0.004658179933324749 0.0026066857962311753
301 0.0005789635670682241 0.0015095879343916669 -0.0007195516397688912
302 -9.561439672780729e-05 0.0014846375662201253 -0.0005987633533314806
303 -0.0009214727893654102 0.0015802608068242662 -0.0005549382948645112
32 -0.0001272426314069213 -0.001054522375062543 0.0006553420401100204
31 0.0007721262251580768 0.0023948416317630524 -0.0012251580066389221
151 -0.0038462654859661985 0.0002224908304720346 0.0011162225828946115
152 -0.0011319698566719905 0.00010714146514355961 -1.824503957062214e-05
153 0.0013252456424504714 -2.401920134099392e-05 -0.0016440835815089614
117 0.011657286734470118 0.00023275223998257103 0.004641076659900498
115 -0.02024013575648994 0.0036464165766935414 -0.00767071018815206
116 -0.0022261501405970202 0.0011397316512683682 -0.00014341093347626497
627 0.0008085122792856591 -8.095416548050081e-05 -0.0029778275226456045
1488 -0.000878994479329872 -0.006008483233462622 -0.00253575039174218
277 0.0015965993800354245 0.0021170216982503895 0.0011745600309700118
278 0.0009279409013527782 -0.0008700224261326828 0.0018738334104717255
1487 0.0022607714462763166 -0.005118386621416399 -0.000275355264164382
1486 0.002337236333404441 -0.0057689697928683245 -0.0030861198710509736
270 0.0001251285867578849 -0.0006299368744835457 0.001156262316646367
269 -0.00039256665714075637 0.0005927673533187251 0.000818991972996017
268 -0.0009241412164518566 0.001919258548746676 0.0003566141805291343
165 -0.0010260713316982226 0.0002729214100704697 0.000867753113847118
240 0.0019647757860913133 0.0018501651078173423 0.007261651026172815
238 -0.001553615265188803 0.001574828618157852 -0.0016740111325234813
239 0.00021576841218918968 0.0013583446434740861 0.003184225842364042
690 -0.001078787524475004 0.00019550147037891548 0.0005867693266317311
689 4.777798375394354e-05 -0.0003229188962539018 0.0022061308154242413
688 0.0008925576533567085 -0.0006845610529669792 0.003338529684540932
577 0.0015030062376833189 0.0011763930696563174 -0.0026827594537273632
543 -0.00023653622421128973 -0.002583403840219308 -0.004010406054211384
541 0.00040928091672986285 -0.002205403264047398 0.0006526944886554645
542 9.099690629051348e-05 -0.0023907688668124353 -0.0015265125350307218
355 0.001498021330802104 0.0011006925739870405 0.0006212825907231162
356 0.0009692629751225823 0.0008148891830871486 -0.00022476195209240448
357 0.00032790589125405236 0.00040795544133067187 -0.001291194900783687
29 -0.0012780815113930062 0.0009013872017986638 -0.0016969121665418975
28 0.0014557550419123163 0.002658004950974964 -0.0032161501219040976
326 -0.0021293862477376442 8.609347900944685e-07 -0.0021240303450118254
327 -0.0013076537152591871 0.002682348745086701 -0.0016725838032215232
190 -0.00024348358318185034 0.0016066918525262349 -0.0020214373660272958
191 0.0012708707307035679 0.001938014219419016 -0.000282078657520615
192 0.0025633845192687263 0.001698657567494081 0.0013236815696087488
325 -0.003970767102685789 -0.004375051904857459 -0.0019303910821095267
1198 0.0025067352113382936 -0.0027455441195643054 -0.00571093230047132
1199 -0.0015524006112795515 -0.003374167331140548 -0.0025803560197439953
1200 -0.004986428647831165 -0.004322694278398216 0.0012819222768456994
219 -0.004596901524477264 0.005021615476611782 -0.0005673065732368056
218 -0.0003448815975119923 1.0989438758349227e-05 0.0003781515102454654
217 0.00412272117654985 -0.0050304688186806985 0.0012579132594936816
199 -0.0009297198948882172 0.0006449269204126266 0.00335010864626369
1480 0.0016521895418377382 -0.0019945017275813767 -0.0024223194088705217
1481 -0.000639210978883206 -0.00023197739886988294 -0.0019108428764917195
1482 -0.0031010395534049754 0.00124245695261871 -0.0012849371787601567
866 0.0013469547949853135 0.0014063663290871764 -0.001962593573267576
867 -0.0007812312692619582 -0.0014350387481362387 0.002744690918731355
343 0.0007347980668759019 -0.00098224588924934 0.004138196506878912
202 -0.0016711037918651684 -0.004437787290322594 0.00986929748658053
203 -0.0020331931199321592 -0.004935509781955789 0.007658096605683765
998 -0.004561764332715392 0.002444910519963766 -0.00146066500967496
997 -0.002790365034166077 0.004298219480407537 0.0009103269994849549
999 -0.006857902537048622 5.413504100955486e-05 -0.004251844717392172
1041 -0.01318708860365499 -0.006238448547692943 0.01472756085911748
857 0.00224133052168437 0.0018572499414838048 0.000133029013071731
858 0.0018060333209660628 0.003518809537124437 0.0014705879149531783
345 -0.0010292352639131397 0.006136611509901074 -0.00032597823091216145
344 -0.00024669891727539854 0.002285762423726345 0.0016883085229010006
162 -0.0012979245301775759 -0.0027983100048685934 0.0002984259150548931
160 -0.00017467432589631342 -0.0003732543635896487 -0.0004998652157331331
161 -0.0003599618277687343 -0.0015141793306798848 -0.0002054068182186842
171 0.0025328817854230346 -0.00034487452752898003 -0.0008636950642872709
169 -0.0005807035957750388 0.0015213292369587886 0.0024765042797514247
170 0.0008988682718650949 0.00047862636258883586 0.0007086709515847953
1350 -0.004048568273082451 -0.005803401990003491 -0.0004552915788219762
1348 -0.0001727916447626041 0.002128788238165455 -0.006817500246320532
1349 -0.0015987495834143223 -0.0022994155213624723 -0.002813374759481624
896 0.002835492638877236 -0.0008966103209357409 0.0014364175182024666
775 0.0007920202752727977 0.00016783606590583915 0.00316032794750076
279 -5.6800836460238915e-05 -0.0036231954918086486 0.002454606500738073
164 -0.0014756215535553178 -0.0007977335232957364 -0.00020524210690789555
163 -0.0018032582621471836 -0.002051857407046439 -0.0012857424675909595
289 0.0005988474338639553 0.0004272784127168021 -0.00046366287566520457
290 0.00019590978418014324 0.00013530118278625979 -0.0008907718885206514
626 0.0007213712437228788 -0.0010524995189334608 -0.0019130540280055364
625 0.0005816279696447762 -0.001571636175313552 -0.000735994830671519
940 0.0038259791870460954 0.004287896921834882 -0.0014783825476000544
370 -0.003443892417968116 -0.0007991738008135467 0.001515891645198042
371 -0.0011369516046450929 6.416785787713703e-05 0.0013210057495274862
372 -0.0007879162178764056 0.001974882765938162 0.0017331820823988907
280 -0.0012023655806953529 0.0014137031469675975 -0.0005173537460804202
682 -0.001878089696439277 0.00030424180483932563 -0.0004779506294908494
683 0.00015852620369020474 -0.00171628893727612 -0.0009857553379472924
684 0.0022079971596987978 -0.0038109040805347117 -0.0009987430522588518
942 0.0011977875080071403 0.004396079238700565 0.005416517167748913
941 0.002427565082541121 0.004330197321532069 0.002026502393055033
226 0.00023665223018290367 -0.00023383419356024453 -0.0016281928647418002
227 -0.00014761303412212822 -0.00016579226344633417 -0.00024387179106027972
228 -0.0006882725029446587 -0.00011650136388677109 0.0016077206935781877
281 -0.0008506659395757828 7.633727187048399e-06 -0.0003872744761949851
282 -0.0006687157374129841 -0.0013127512441991616 -0.0001655401296917113
200 -0.0018833599909648326 -0.000609453712498276 0.0015135694193562743
201 -0.002903972595522692 -0.0018924232989845102 -0.0002728460820856671
384 0.0033168760897265607 -0.001268506774057403 0.0032598684848290263
383 0.002569490375537863 7.709783033652682e-06 0.0018215963767820593
382 0.0018343684134741124 0.0012804738957088997 0.0004003305562184583
204 -0.0030274647054765536 -0.005678129176796304 0.004573791268824061
856 0.0026284708771233253 3.134737720155361e-05 -0.0011789560627461454
154 0.00010705323606257147 0.00011078068512480804 0.00011283368127000957
373 -0.00023496093444025894 0.00035683161510489654 -0.00029288875304930476
374 -0.00015836864477652824 0.00014745169336048727 -0.0001520026640651087
375 -0.00011393782093062556 -3.593627319407372e-05 3.235211431790425e-06
760 -0.0029745093144679393 -0.0018793252500409075 0.0004163711891747756
761 -0.0010615679586362756 -2.9161925962932033e-05 -0.0013247563058787705
762 0.0012041385149294385 0.0017427030529838894 -0.003021111435899533
483 0.0014629382618418611 0.004378435029581912 0.003986544046651425
155 6.546323952442973e-05 6.210689562815243e-05 8.92777722237277e-05
187 0.0015009991555192947 -0.0005663238365373491 -0.0006102511613591165
188 -0.00016361369724283178 -0.0005612992535334495 1.982760825550926e-05
189 -0.0019122133669026054 -0.0006165624102540518 0.0006900544534426934
960 0.003460178613832124 -0.001894029890909638 0.0006351112969410986
958 0.003234299993774392 -0.002451135087421872 -0.00012362581917133868
959 0.0034075009619624155 -0.0021120610757986422 0.000259901064596812
211 -0.00560811617658599 -4.5168868281987764e-05 6.292974427022937e-05
787 -0.006512436399310626 -0.0005593747763533361 0.008284853430156778
20 -0.0013304265093672728 0.0007864995052754065 0.0007917160442991843
21 0.0008260049301230302 0.0017833065600505909 0.0035379258691325996
19 -0.0035746982838609884 -0.00023553485785493916 -0.0018801317166005518
333 0.004749968572114824 -0.0002985177806047749 0.0010797364296919363
332 0.0012382759333971194 0.0020281699535698613 0.0008479517169618411
159 -1.5910802157740353e-05 0.0004242334969523021 0.00033204014560648577
158 -1.8457289287505744e-05 0.0002707730315623407 0.00016106107103476883
157 1.0588078507943878e-06 0.0001330115462708906 -3.566315049374148e-05
414 -0.0021421910310847614 0.0006288380738423462 0.005113656270778061
168 0.0012264630352302086 0.006788887687071602 -0.0006230566555205406
788 -0.0017938876427072662 -0.0043691436699705025 -0.00016750651976358587
1475 -0.00045110738684305256 0.0001488798961759976 0.000623619997902937
1476 -0.0019127945958127088 -0.0026476585924757566 0.0025938016102395605
769 0.0037911408538462126 -0.002109379098205984 -0.0020260398081619413
445 -0.002108789046775339 0.0031272790137918246 0.0009239409973643661
446 -0.002030531029414586 0.0015870726487914474 -7.569201415262645e-05
523 -7.095253217884431e-05 -0.0004292390662964441 -0.0007417163191112769
524 9.018203823768426e-06 -8.976907554374621e-05 -0.0002444156002735587
525 8.992394661863485e-05 0.00026972845361261763 0.0002535852287513355
479 0.0020343176381446594 0.0015590797591812286 -0.0021258937692890047
478 0.001619686064264807 0.0003664741393474688 -0.0009055178209385433
480 0.000504161695291657 0.0025795855717440828 -0.003927494593507626
635 -0.0005425982460769554 0.0005168196735960064 0.0005387856811583182
636 -0.00154020533717799 0.0022378583231410184 -0.00048303562661554156
1066 -0.007969175236762539 0.009999599752266648 -0.0010341611399850746
1067 -0.005188973131596907 0.0018779344243669205 0.00191550617198279
1068 -0.0027389140178875537 -0.006941703856609269 0.004119829869982559
634 0.0006357725703843972 -0.0011074284539597634 0.0016216677395150725
41 -0.00360847114320128 -0.002907597804271126 0.0016185643802393412
40 -0.0070827958562649585 -0.0019257151864742633 -0.00020825406786569657
42 -3.7846666959361075e-05 -0.004217119389174017 0.0034497840066608568
502 0.0007791002503622435 -0.0018669973795031553 0.003240766581621321
126 -0.001264637740268802 -7.058358740571874e-05 9.731451486665549e-05
125 -0.00017431532675904902 0.0007729156818111574 0.00010915150658275715
124 0.000644614966666207 0.0017314576020571015 0.0008599295525020977
97 -0.0025654499891878237 0.0033041844839439994 -0.0007246137966618078
580 -0.0005016381816534204 -0.0037716402921633132 3.801680191009924e-06
628 0.0012595314466767114 0.0016807547666516734 0.0005234786441867653
581 0.0009035388770209313 -0.0016840053293982317 -0.0001521813147206282
582 0.002222507232081881 0.0005118090467033105 -0.00017704955146623867
98 -0.002071173746705488 0.0011523460811522486 -9.955072693745262e-05
99 -0.0016180489401148525 -0.001122121297173653 0.0005332263036551864
570 0.006629429507613286 -0.002255289121692849 -0.00014477021529840374
595 -0.00881825372956169 -0.001534890669146862 -0.0015825934312360557
596 -0.0035940971214080174 -0.0014126242575168279 0.0027650132917105296
597 0.0024733638540281066 -0.0016513523013853336 0.006893333804854084
421 0.0012396881930371916 -0.00010405588256092996 0.0004472439671170037
422 -0.0001572979268750076 -0.00036820811592836616 0.001181230640720453
629 0.0005129381145438753 0.0010972846676873414 0.000677207123909498
630 -0.00022256246696478768 0.0005184855617113033 0.0008608590347687001
156 5.024885884533416e-05 -1.4899469432863239e-05 7.884933880461275e-05
1379 0.001988961524901824 0.00214787473278227 0.00546463721388941
1378 0.010867717712187275 0.0055569050719576135 0.0037176127361655997
1276 0.0007924586742956141 0.006462934706110847 0.0036656479206108312
1380 -0.0053457535451640085 -0.0009979458243635682 0.007048222773323219
1249 0.0038649490115527665 0.002626415746672183 0.0018331214633360163
1386 0.006514469158314513 -0.0005179447106567475 -0.0007129447378198096
771 -0.0025992862185497023 -0.0030031466155878155 -0.003900510172574778
517 0.0002836279938852138 0.000188649067885095 0.0002439778242502759
518 -5.573237662785147e-07 -3.39845039547843e-05 -0.0003535586750476702
519 -9.722886430165843e-05 -0.0003122775761190885 -0.0007291447198560326
1337 -0.00038446935340530537 -0.0003230213818014828 0.00014000956737570604
1338 -6.0844258976772e-05 -0.0003954368604580411 0.0001410491199308861
1474 0.0009417817158775542 0.0029564392395599473 -0.0013537573950027683
1330 -0.0002207225994520806 0.0012302683275184933 -0.00019193461191601482
1331 -0.0001720515879118719 0.0011231521809493788 -0.0005110347644078656
1332 -0.0001061198998731676 0.0010475633755070446 -0.0007592764424564443
447 -0.0019642790893032373 4.331916670046845e-05 -0.0009588867755397442
734 -0.000964547310482033 -0.0005036746170057903 7.216995100925326e-05
733 0.000803739860916419 -0.0016404651859289164 -0.001860886806794929
925 0.009259189414723564 -0.00416530922646579 0.0036410461890987833
927 0.00558461168404841 0.008650412662718003 0.01514396226543127
926 0.007526484508894023 0.0023139793679216153 0.010027407252143556
665 -0.0006913760509111052 -0.00179191748364885 -0.00024418318930576863
664 -0.0017240220910011525 -0.0003939203053463055 -0.00045481125056848524
666 -0.0007557340610325155 -0.002700974449498252 -0.0002279053802606475
503 0.0010235209028454436 -0.0010717043755724342 0.0006634251941558244
504 0.001301951293335813 -0.00023540660509214709 -0.0018763900452143482
800 0.008393925560502098 -0.006724830772992714 -0.006500322869168691
799 0.014900333573184071 -0.009883713282313702 -0.0067149949385825365
801 0.002082252267183801 -0.003635512865148203 -0.006291680674505756
606 -0.000489752885895446 0.002955432633684431 0.0002729723555102058
604 0.0019853842910328655 -0.0012520490548124789 -0.003504035886413807
605 0.0008000690421248132 0.0006786271596086332 -0.001746070266741618
633 0.00013252931961539867 -0.0027971693514639664 0.002073958716578439
632 0.00032775882975856556 -0.0020591647210484003 0.0018485808296834125
631 0.0005999193343849627 -0.001342951651544929 0.0016213057933379131
513 -0.0008647457962630644 0.0012530105481648522 -0.001270334711308602
512 -0.00033138663027826846 0.0013391800518512923 3.3246987805604166e-05
511 0.00015380745689448974 0.0013696567969807179 0.0013272448426177726
568 -0.0009137647243416796 -0.0035446233917405616 0.001979994727123788
569 0.002738526451444804 -0.0018935590794513992 0.0019925118078840966
435 0.007190625648858207 -0.01048765314018023 0.003253330212627269
434 0.00813702559470378 -0.003973673542489645 0.004077279454444
433 0.008841425141717265 0.002708128117174982 0.005360347191712032
429 -0.00029339085552665796 0.003002039391113968 -0.0005550275628146343
427 0.00013416239853618163 -0.0019060829756052428 0.0012083755187633643
428 -0.000179399819679098 0.0005340098777132527 0.0003146449532164265
410 -0.002603343536844858 0.00023972820687784833 0.0022166063358357003
409 -0.0051172295281040215 -0.0026617285392430395 0.004838806518515811
756 0.0022379002262397415 -0.0011648974565367889 0.0065053462779396855
754 -0.004026453094014206 -0.008047824380226424 0.011948659800970427
755 -0.0021821328489012625 -0.006123755966297076 0.009066165025083455
1307 -0.0003690233903717747 -0.0013749648015264576 -0.0014735764712719773
1306 -0.003858930156146797 -0.003725377465063019 0.005249585477063336
1308 0.0021780860734167498 -0.00022600094918504446 -0.006552508126258613
1132 -0.0014165855963706095 0.0010166548858874004 -0.0009942205147955054
1134 0.012257589228907994 -0.0022551140094548383 0.014215743720801807
1133 0.006534666747587553 -0.0018692713415087814 0.007346333328136917
411 -0.0001071333817907928 0.003547554682072976 -0.00096692232574122
1064 -0.0013959674605042625 -0.001119172430504139 0.0012373724991219762
1065 0.00026008084171908174 -0.00102654681763951 -0.001474928837425871
1063 -0.0028398055359463974 -0.0012267435739603562 0.003804692410672066
462 0.0009042219446237219 -0.0007941219179701679 0.0003436880493311709
461 0.0016807116552045042 -0.0007702403455363934 -8.842452890901091e-05
460 0.002053508248347429 -0.0006384746064100698 -0.0005815892703376341
603 -0.0010983922378625217 0.0003952760487741603 0.0029591045105583184
602 -0.0005391753583731491 0.0009818245908784877 0.0014944720611368308
601 0.00036700302924169036 0.0018377417906507358 -0.0002241928294714497
670 0.0007749916803144316 0.0006863355698053558 0.0028073807241442393
671 0.00041750863519884586 0.0005278843889008892 0.0023416335640188243
672 0.00018304520685828151 -0.0002461750773360129 0.002396767762000026
306 0.0004507600840919547 0.0014119510256725709 -0.0007146327402803125
1394 -0.0005802496083769944 0.00019204130269482035 0.003523841210836711
1234 0.008074498569546546 0.010955040617502229 0.012414070839046203
1236 -0.0016099728512289193 0.039776079891443925 0.00032268174174082963
1235 0.0018272073519587193 0.029129776690092105 0.01137219624972393
608 -0.00018328023547116171 0.0001992676991461291 2.0699323708395283e-05
609 -0.00043428916883658694 0.0004927927975834848 0.0002396979546620676
607 5.241449945139436e-05 -3.9813102593610636e-05 -0.00020801719823501007
639 -0.003386238172016048 0.0016708667253588691 -0.0001684435682216434
638 -0.0025384767056938484 -0.00022716945884248763 -0.0008630103929412193
637 -0.0015365014475627267 -0.0018798804380416921 -0.0012717411557734645
667 0.002287925303564929 -0.0012350454005297642 0.00023862231680706086
669 0.0018203466516617595 -7.777743435942118e-05 -0.00035838101729597066
668 0.002364457148796821 -0.0012914436896949548 0.00022920294766333777
555 0.0001210418188452577 0.0009723192691742833 -0.0005953150125566908
554 0.0005524108717852836 0.0009051906858806425 -0.0010835614046320848
1441 0.00301921998238671 0.0010275188168262731 0.0029394273979155322
618 0.00038044083567400424 0.0006430068446502136 -0.003198114681883391
617 0.0008832095764421192 0.00027503155610691254 -0.001016498181811728
1442 0.0008500019311684219 -0.0025748985227770555 0.0009646200394874188
1443 -0.00136131690386129 -0.006128284997553571 -0.0010376871614992044
616 0.0014841444455209844 -0.00012343175783261683 0.0010771677881705535
708 -0.0007653056511207429 -0.00456041916752257 -4.1369367254325146e-05
707 -0.0004904205509509661 -0.0017613941558380917 -0.0005512847297684136
706 -0.0006552506477223106 0.0013890674301775376 -0.001206209144779883
494 -0.0013132227970377454 1.9611666879194142e-05 0.0006548289240963422
493 -0.001575463544820282 -0.0007002297588871251 0.003685020867876877
677 -0.0006274264255953818 0.0013381873248472739 0.0002410947724237241
678 -0.0007046028152262936 0.001400828807190416 0.0017021107357084887
676 -0.0005395599748983198 0.0012072122718763407 -0.0013097650912266196
475 0.0013981401194507552 0.0019238231977101944 0.0018411544888104557
476 0.0014410537018458534 0.000718572756378695 0.0002019028762470169
477 0.0014570178613604488 -0.0005254888179475153 -0.0012327159827106987
731 -0.0011575955840432749 0.0001186499561373733 0.0005726187568771664
730 -0.0022550332950099566 -0.001493525022031764 0.002853673680972314
732 6.352979886339446e-05 0.001841536906102537 -0.0015694447055449355
713 0.0005411960179861724 0.0009220531450417625 0.0005160906576965585
712 0.0010213995526128178 0.002479964705181889 -0.002063430280290389
1003 0.01027466770677115 0.006023005669905607 -0.007190951732375264
1004 0.004190568416690785 0.00437622424404051 -0.0016525864399441165
1005 -0.0024268213988552652 0.0015131515937940273 0.0022737974958620608
645 7.970164532068917e-05 -0.00023546953621306807 -0.000321079029405953
644 0.0007918528147294612 5.7616912562222144e-05 0.00043108802998384434
643 0.0010264859649242156 0.0005812250604313644 0.0008038823631589082
701 -0.0007202943275889918 9.899420854230939e-05 0.001396870522038933
700 -0.0008275188384085396 0.0004272756322461601 0.0015690808391678886
702 -0.0002330490041909251 -0.0005537401554880013 0.0010686824252462083
567 0.003147013143210306 0.0008757492161793911 0.0030280823502543703
566 -0.0004111520445288161 -0.0006911293394989543 0.001670045255349885
1351 -0.0014370830963548978 -0.0009780218081959164 0.0008097738142228889
1352 -0.003525468302357757 -0.002269594755502556 0.00020702163554737115
1353 -0.005511342903432973 -0.0034143630361943744 -0.0006728811819839708
714 4.420815813625379e-05 -0.0004880115038094442 0.002981973178356678
401 -0.0016320989106516008 -0.0011031521584175836 -0.002035664994778224
402 -0.0008803672314680165 -0.0026593770243473515 -0.0008196560848523496
400 -0.002185148928677341 0.0013848692110178498 -0.0029141978995534034
1159 0.0010812550814408696 -0.0008171935489617068 -0.009717881970722075
1161 -4.034539876778587e-05 0.00036660974100670744 -0.009585395166035113
1160 0.0011894918750086142 0.0005521203679793837 -0.009677100528033885
1498 0.0014316914848516054 0.003169727539086873 0.001891339644841352
1500 0.0032525252419822654 -0.0001736128364700301 0.007145047859039173
1499 0.0029253288316882873 0.0013868303752093808 0.004739175446209384
531 -0.0054680836970899815 0.0002688189466866186 -0.007560270002896536
530 -0.002318405530582023 0.0010533686850361713 0.001952699540172256
647 -0.0015654344107577998 -0.0027285232191815224 -0.00019416094735345076
646 -0.0001992437586988122 -0.004344006484552015 -0.003152610704036164
464 -0.00010823767885632352 -0.0009392827934934383 -5.728299824889673e-05
465 0.0009899452492595612 0.0003515907511848753 0.0007746647904489177
1334 0.0011250949017036706 -0.009506502626364398 0.003937872913541439
1333 -0.008338843314194933 0.006220345241746807 -0.011761941295692321
1335 0.008267197529805067 0.004625381551071569 -0.027712247609167115
529 -0.00022155599894995315 0.003026674921482432 0.005414195092342792
553 0.00117792166891356 0.0007430274023706618 -0.0015960067912058947
463 -0.001231949659952887 -0.0023310605193097057 -0.000908921391004364
1419 -0.003342649321198414 -0.02151068140995738 -0.004474598452329434
1418 0.004943944572281835 -0.00285472640682357 -0.0014526927138647251
1417 -0.016568797372522023 0.01456191273116472 0.011602328626595368
495 -0.001035036179140074 0.0007242907281935594 -0.0024322786463151216
950 0.001974884637288073 0.003541008766731278 -0.0006605565818460264
951 0.0021377298902185643 0.0032701779592062673 -0.0006956687857100933
949 0.0017803983965995716 0.003929515204848382 -0.0006329193110332992
783 0.006645145653733689 -0.018780992004323493 -0.01988659761968232
562 -0.0022038369243002343 -0.0011390337095493555 0.0001965797292606154
563 -0.001752496920587505 0.0007072184373449523 0.0010409919393149381
564 -0.0012750998660174821 0.0034585892535535876 0.0026943989949751125
782 0.0030058846541712696 -0.009426674753116124 -0.009606256930466755
781 -0.0012042259016552131 0.0005902978545975948 0.0012620916550618092
419 -0.0004050115406265081 0.001139664492439623 -1.8052713427285946e-05
420 0.00012170658610320914 0.0011316655346121987 0.0017193442435416212
418 -0.0010400176355754081 0.0015944548847060128 -0.0022022641402815197
598 -0.00016671820357315827 -0.0001056300786765754 -0.0001073194903242076
599 3.639578439482484e-05 -4.465286088304702e-05 -9.222310141699395e-06
1162 -0.0054365586624885295 -0.013551369283446654 0.019397676402824825
1163 -0.004078455039316301 -0.005353041791270303 0.018718364443197417
1164 -0.002059850665200805 -0.00028253991869887934 0.01535010255406493
651 -0.002771803199191475 0.0027989202598340686 -0.00016075728633989817
565 -0.0036686088843808154 -0.0016184070774380717 0.0013894145531740173
453 0.0014575106667767818 -0.0008525953283128834 0.0009753345313875751
452 0.0005652873509419987 -0.00026445265806983553 0.0012890352499545091
451 -0.0026217048882905248 0.00010989627629120359 0.0012735468175552743
407 -0.0015377422793693945 0.010289803251386656 -0.015241449910352957
408 -0.027639886887784865 -0.0302452192810098 0.017974692680408976
406 0.02075623442999139 0.015947380061180533 -0.013339877836521845
716 -0.0016611652275101837 0.001307439172622876 0.0005996273197507594
715 -0.0014739159859959827 0.0034910543594538477 0.001284927273728787
717 -0.0018607857506465074 -0.0013198466293516528 -0.0002360938200447965
649 0.00034411760033893987 -0.0017430951048311505 0.0006635192714041824
650 -0.0008253836633773807 0.00011405999817926433 -0.00029966696081211463
70 0.003540193808749267 0.00035609014187781894 -0.014066075969817403
71 0.00405279113263954 -0.008372007980403042 -0.007833424930009054
72 0.00452215757196262 -0.015466595729583863 -0.0026512961417158756
535 -0.001272991036212954 -0.0025758249080308215 0.0008949171572786107
575 -0.0014653687503764724 0.00027000289686117884 0.00015189454719719
576 -6.676940764220005e-05 0.0006357746309217526 -0.0004438821057787177
536 0.000992404561647017 -0.0025583947383001114 2.4425325838212142e-05
537 0.0020149725222246835 -0.0024993402116652626 -0.0008304604093170616
574 -0.0025737843951809114 -0.00018626231772037358 0.0004513350338477345
750 -0.0016659799732315923 -0.002840060541385493 -0.003280042341262853
749 -0.0018886734025411888 -0.0007777424848463915 -0.0008295083958563241
748 -0.001969274661951062 0.0010214851026974137 0.001962588224652228
1278 -0.00017977956306221705 0.0008067968599389085 0.0010265409457063514
654 0.001605888617925383 -0.0038657820892576533 -0.0018202683080105258
653 -0.0014167105129642011 -0.002217856365204428 0.0020343133266884942
561 0.0020243873870733403 -0.00013491540530036715 -0.0005197950663050146
652 -0.004325423434948846 0.00014650806911872385 0.005743516091018052
560 0.0021985807429265813 -0.0002846789826477301 -0.0006531162661704994
1277 0.00027709327822650044 0.0035800755953836368 0.002279794746715184
486 0.000803077787606145 -0.003922698663426207 0.0023599872113152427
485 0.0010598773338338914 -0.0036404935427606184 0.0014151397155219706
484 0.0012574717373804388 -0.0037004681782388748 0.00048265819526753306
648 -0.002534760496763286 -0.002157914908707502 0.003226766390305846
514 0.00013325295486251533 -0.000141447944143234 -0.0001352614415763233
516 -6.889126591822025e-05 0.0007714196484529884 0.0003486430551240199
515 6.572943109169855e-05 0.00029895152378982607 0.00010569922477870919
613 -5.361389418181626e-05 -0.0005522562059882201 -0.000274479371277867
614 2.797841900320588e-05 -0.0005035376550402412 -2.346110287342634e-05
615 0.00012931824088631888 -0.00046923066950031 0.00025091603194769715
488 -0.0022941494956852807 -0.0017443748855624594 -0.0014489926021992755
489 -0.004081693814620277 -0.002632657478353366 0.0005546547122577811
487 -0.001659394302248213 -0.0011654040931524735 -0.003855634051999293
143 -0.008528988198985517 -0.005995475976458404 -0.0008934392659355571
142 -0.011289813273345514 -0.003457532191542631 -0.002985427136767499
612 0.0014415887986287807 0.0018968851917964887 -0.0004865011056666588
610 -0.0019136198631361247 -0.0014663449393857505 -0.0007044383773380995
468 -0.002374001647064083 -0.00033636219284072856 -0.0007895592235580395
467 -0.0009070146359295256 -0.002426918008369283 -0.00032455173964039176
611 -0.0005002625135800331 -6.123671397483926e-05 -0.00044856101405879215
472 0.0013980270472713436 0.0017571626710984813 0.0019953662562350863
474 0.0018413734299192034 -0.0012547876269629876 0.0002205720996920814
473 0.0014536620882609843 -0.00031260408234435103 0.0009397764140739117
466 0.00036899185409432656 -0.004253366365549334 7.218962487231377e-05
737 -0.0002573282398086579 0.001492188167164264 0.0004606954100380287
738 0.0004692386507327774 9.472008323646396e-05 0.0006843101011561136
736 -0.0007025240292389624 0.0027145928820965326 0.00041668315880505683
600 0.0002016171485050089 6.376355741390187e-05 9.994578651971166e-05
1171 0.022826874939839207 0.01237064407584253 -0.01558650100814181
1173 -0.011906704025264638 0.0035818100286919437 -0.005030509179279723
1172 0.004733761889529321 0.008619850613786896 -0.010262727915541857
850 -0.0004183749314775255 -0.00036655202126462816 -0.000913635884164019
851 -0.0007429664646445363 -0.001073840618172073 0.0001566302548340839
852 -0.0015969326250993602 -0.0021029621431820395 0.0012824447139054489
481 0.003818152359425428 0.001237940044008358 0.001399312547091652
720 0.00232228607361967 0.001796827768454536 0.002909560661715594
719 0.002303858477507779 -0.0005559324727263514 0.0022338241514720377
718 0.002294655205404126 -0.003045825402637221 0.001461006246588133
694 -0.00010640635384499945 0.00013400794295376106 -0.00015223274537551918
695 -3.2856639797497607e-05 3.076135720649128e-05 -8.775196130055175e-05
696 9.60677074641512e-05 -6.0444891160011845e-05 1.1357720221361225e-05
757 0.00034956997037077916 0.0024527235884456862 -0.00037963726229531
758 -0.00047591891663567473 0.003265925633458922 0.0004679865433015196
759 -0.0009820331722820977 0.003780137189868163 0.001647875628959218
559 0.002376808793126481 -0.0004168760983686471 -0.0007154231926859
1385 0.00222492204643206 -0.002033853573310571 -0.001876049485034272
89 -0.002441188185052743 -0.005102415735362653 -0.0009229107236297035
1054 0.001335537318093037 -0.007484022736800861 -0.007083871512165438
765 -0.00047583270768330994 -0.0001482411058109309 -6.42460222765819e-05
764 -0.0002298080199188459 0.0002909915984027424 -9.293149429518498e-06
763 -0.0003057759891248496 1.845698928896795e-05 0.00015491141509331512
1251 0.005032690111915691 0.00043421580512496936 -0.009694193572490982
144 -0.005791404232497003 -0.00779468534785212 0.0008236776084439197
621 -0.0003821741088974985 0.00224094975838314 0.0018630319403087456
547 -5.943072762691768e-05 5.2812000553570904e-05 6.667178793656563e-05
548 -1.2183787008320475e-05 3.6619251539199086e-05 -1.0991212973864839e-05
549 2.841830299543785e-05 1.1192876334499391e-05 -5.353872398765646e-05
619 -0.0024508633579988174 -0.0008535551280387247 0.0004770083482583323
620 -0.001730641069910242 0.00043024664775749333 0.001510453474001598
423 -0.0014172753885699663 -0.0005557942094828421 0.0019468877481522895
533 -0.0027232088368533696 -0.0011725165370190297 -0.0010057265791362491
1390 0.0007293258910917917 0.001025155576855186 0.00022611938711714343
534 -0.001964955730385094 -0.0001042204188359234 -0.0013690387168876874
1391 0.00099238477239923 0.0005008942418700226 0.0002472536770746302
1392 0.0012454247398784833 2.554207489703117e-05 0.0003430683605054819
532 -0.0036217387950280926 -0.0022720069930067003 -0.0005539327985890878
1250 0.0043338853336939084 0.0006756372075918415 -0.003158005574260263
735 -0.0025867477135180484 0.0008191241059889456 0.0018342626357625749
469 -0.0010176109353326923 0.0017928199333495972 0.0012207283714591515
1056 0.0012251684354739737 -0.0018966898412043568 0.002792468224574246
1055 0.0015007041157029642 -0.005995553096169161 0.0003711340676326198
1395 0.0018066220695300188 0.001185290232745996 0.0024074573960355364
770 0.0020792858351395926 -0.003160278073157607 -0.0026709345611193604
90 -0.0070434263825677424 -0.0020689239693722594 0.0001296696301382883
1384 -0.0013460892159063579 -0.003119416417087577 -0.002686076992956227
482 0.0026499501147085078 0.002760211962009947 0.0027153819102841035
1168 0.0001661042511294425 0.0005068424042106863 0.001730714335516236
1170 -0.00041460579516013665 0.002362882916412093 0.0043619260222634085
1169 -0.0007043296326031777 0.0014862056647212873 0.002871167803305174
320 0.00047763214042442607 -0.006842881501913187 0.00192859355757244
311 -0.002744558083257769 0.0005422736222884698 0.0005977980136996434
310 0.004801445602165569 0.0008715451388209581 0.0026340072642651083
966 -0.002075886240917671 0.00014292794254981535 0.00047319339913563417
1113 -0.0023516674491855013 0.0033983532003060263 0.0025302948472968453
811 0.0016169802090427578 -0.001400929978669688 0.006173297450234485
812 -0.0008378017404752264 -0.002694387177066287 0.0038217939179484113
813 -0.0030592220456838624 -0.003725077260155009 0.0015444513828612408
1101 -0.004454099938530065 -0.0016387143141704402 0.0021838722380791683
1099 0.0013293257981862024 -0.004881763389450725 0.00030362698786971673
1100 -0.002032126684998933 -0.0032834516654921785 0.0011162544114153889
1256 -0.00023577734626127644 -0.0009370249544321518 0.0015036584538829778
1255 -0.0008597287499752082 -0.003394602857632777 0.003969177308772402
1257 0.00045019189696024795 0.0018550201631933358 -0.0013144647979054771
1291 -0.0009406787501418456 -0.0011757976436688011 -0.005008035228412564
1245 0.0013752929214165583 -0.0016864711024199774 0.0012552423866879568
871 -0.00042563949468366914 0.00038067226595466506 -0.002012686877946986
872 -0.00040164762181252864 0.0022683272167225046 -0.0015768779858562065
873 -0.00034027099192979177 0.00392410361920119 -0.0010842488286453155
1244 0.0016178890449005307 -0.00046899995034803155 0.00018393829852512815
1243 0.0015322808596331128 0.0013338283364621123 -0.0005256806819584793
1026 0.0012828517649797742 -0.004366467837288887 0.0009403692919295541
1025 0.00028807417018547653 -0.002135583835819306 -5.276168681839297e-05
1024 -0.0003355003367092587 -0.0006907894182677915 -0.0006166774928537265
1112 -0.0005765221198178 0.0016807349141840255 -0.0015977574511020572
1111 0.0009992165963383498 0.00019047271262131083 -0.005606852735081422
945 -0.005408232799654871 0.0031748019270589002 0.0002423109928483739
943 -0.002256595941569917 -0.0009563156238713331 0.0018060111709770912
944 -0.0038201214041973693 0.0011363330440259118 0.0011169030182126584
907 0.0003441461736074348 -0.002430326734761426 -0.0005968868844286523
908 -0.0022212061049068383 -0.0025906171213248355 0.00022631504521369443
909 -0.005886906582282795 -0.0025351820417816476 0.002332980426410135
1466 -0.00043952001431776084 0.0011240913090205563 0.0020905591976702062
870 0.003909919210437728 -0.0012156635758511984 -0.00364286960766685
869 -0.00472808817719557 -0.0013890844120917436 -0.008090790339653153
868 0.006271559005326331 -0.006462395526141782 5.672903485142193e-05
1467 0.0019002926779147842 -0.0006857521793390741 0.0009281020374586564
1465 -0.0015000424291545908 0.002900061130003764 0.0029131887730823275
806 -0.00011920686803684647 -0.0003150654229894781 8.667870513252988e-05
807 0.0018673843118724167 9.21343647073839e-05 -0.0018476187115515825
805 -0.00213239434426681 -0.0006409616140936559 0.0019666853545963433
831 0.0020816474422387246 0.001687740506134526 0.0023147958669550712
829 -0.0015696864212222039 -0.001021266963937208 -0.0012994131521165823
830 0.0003208865762402668 0.00031275773341718705 0.0005364216290686514
101 -0.0008040252320123322 0.005030600242589218 0.009703395359555033
457 0.0006278938026933533 0.013699148707543105 -0.002681090957139341
1075 0.0017506717021067077 -0.004137712631040957 0.0010951590273718921
1398 -0.0007946786665106925 0.0017686560101142967 -0.0024703085290635834
1397 -0.0001656112385405794 0.0005145645302459836 0.0001622205089178184
1396 0.0021279765058894217 -0.0006445795719138321 -0.0009536102582853127
196 0.0011789750272038246 -0.006636823353064994 -0.006409472261653881
1138 -0.00016787760459565287 -5.79966189131121e-05 0.00023035640951624335
1139 0.0005044530306599807 9.219823063724403e-05 0.002004819004115594
1320 -0.0004170010097564787 0.0007207122775043014 0.0016776955164567117
658 0.0029522601824493832 -0.0007291143557939121 0.004484949914059824
930 -0.0033548351314675747 -0.0036172030488427066 0.0031248340457972756
1007 -0.0011971006945272907 0.0008044114035832987 -0.0012635042906691438
274 -0.0013748493702185147 -0.0009414462615142054 0.0013002154143078829
263 -0.0007907185124722903 -0.0001874258550436076 -0.00045881671770704654
264 -0.0008178774572388243 0.0010400982083059024 -0.002435726226773516
262 -0.00043908152488639473 -0.0017964411819369646 0.0016750513298415181
276 -0.00036072640347497746 -0.000994657161012789 -0.0027976604199729757
275 -0.0013917256912715182 -0.0008526618976641655 -0.0006539910206998741
1193 0.0004990312063154019 9.278900838436927e-05 -0.003486720418077552
393 0.00041813154287224843 -0.0017880643173707274 0.0003719877474226951
391 6.16805363764816e-06 -0.0009099382565317469 0.0014935937718570272
392 0.0003263652139779808 -0.001077129515864234 0.000941210681757652
102 -0.006229165985921515 0.005393316475962085 0.02081776137571156
955 0.002377486700607364 0.0010024098312644977 0.0005927834613959127
956 0.0020926875268511003 -6.417462380178733e-06 -0.00013029208199032534
957 0.0015091649127025556 -0.001851242371362344 -0.0011493069940660486
198 -0.005474831157178763 -0.0011517210000818341 0.0008560913753356597
197 -0.0022940568512885063 -0.0038611834391435013 -0.0027689799579531894
660 -0.0003215499608178971 -0.0070170827373101 0.0012409113707403164
1319 -0.001253159275717352 0.0004595574827703466 0.0016435707037901089
1318 -0.003247527826505171 -0.0003256373870006504 0.0018139159794573812
659 0.0014066425347039585 -0.0036607614611537964 0.0023265264839707196
1285 -0.0010863942567547503 0.0010545250174603686 -0.0045118117093147685
1287 0.001195902810237944 -0.0032363923421995914 0.0005602199816524829
1286 6.266838713226494e-05 -0.001250198467801635 -0.0016745876861971982
913 0.00021550108553725523 0.002700749081317497 -0.0002735785221585945
914 0.0006488628683414144 0.003756238707455033 -0.0012763858221018665
915 0.0010275054710697535 0.005182797642151573 -0.0026771924047605303
703 -0.0016612090149732447 0.0009671821083701192 0.004200225971995594
704 -0.00010028132502620624 0.0041294734907774 0.0054434708646090135
705 0.0014290469325684133 0.006930833292088211 0.006876764230343655
1347 0.002658822340360785 0.003277828906498409 -0.0034423666633808876
1346 0.0024685308372008642 0.0018122800509652766 -0.0021631968598086735
1345 0.002275945050072227 0.0006812861492029661 -0.0015072162736545474
965 -0.0004210023795037534 -0.0011534936721363837 -0.0004983837577304289
860 0.0012718132623973733 0.002035839910994609 -0.0001538941552590466
861 -0.0010638036764355125 0.001891423733386921 -0.0003794760517658695
859 0.0033001121605964107 0.002305576555833791 0.0001295345004877234
964 0.0012533653733937393 -0.002481209583048084 -0.0015424160322409163
953 0.000539150865680565 0.0008805012604039562 0.0013304653794265543
952 -0.00036668891764030526 0.0014427304105078206 0.0016777536571243132
954 0.0014645948422459172 0.00041951125319962263 0.0010479047650171981
969 -0.0008941233851780354 -0.0016136802000083544 0.0026807388995526427
1376 -0.003941375015018198 -0.0011539648342803958 0.0009659121194661856
1377 0.002892673293492424 -0.0009551337913641597 0.00570984178619264
971 -0.0001003617307695484 0.002497721826754967 9.19079369712671e-05
767 0.0012408528110594173 -0.0003853498556994888 -0.0007341738887320222
766 7.357339242077768e-05 0.0018641950215865 -0.002924748268118256
970 0.00027282472952061494 0.0010976932595392177 -0.004214773993453455
819 0.007821661135626897 0.0020500271618412408 -0.003416067487845315
818 0.0013187844932006395 0.00030698015293213114 0.00041089780762561126
817 -0.005473978278105025 -0.0014746947517161985 0.004453791838682672
1061 0.0017598151694162962 -0.00041044261901686447 -0.0003635970294874899
1062 -0.00010926373721074671 -7.803694364537065e-05 -0.002528015627615827
1060 0.003694904959472225 -0.000716147108481655 0.0018731374478030247
1103 -0.0005317827027424864 0.0026488035985370163 0.00032768487232203916
1104 7.507066510237114e-05 0.0033047406743281086 0.0007592811223835673
1102 -0.0012044673280338738 0.0019125585011030087 -4.054674507893047e-05
987 -0.0062970436427108156 -0.0024290921838127644 0.009771505039807499
768 0.0023106284581667744 -0.002634133921988399 0.0012941909404425344
75 -0.0032391958044782087 0.0007217375933318817 0.005276530046587849
74 -0.0019543114536997325 -0.00039489856436850925 0.00015171547022077553
73 -0.0006019602060713887 -0.0015839551885920033 -0.005158888775532353
832 0.004379687975309002 -0.00542802237286495 0.0013961512784133707
833 -0.00010000809910802851 0.0005917962571241717 0.0008132143272909561
834 -0.0032237952652685647 0.0039879341964439525 -0.0012258738055017434
1020 0.0018704517838070093 -0.000617522487067771 0.0034167282060090817
882 -0.006157541694871283 -0.0035676957555881503 -0.00079580294521364
881 -0.00034013384227034625 -0.00374062715228308 -0.0031987903638079885
880 0.005504118506547893 -0.003972138693965416 -0.00559470744129302
1018 0.0023441971585507803 -0.001321717255480113 0.004219052877675006
1019 0.0021424263592930127 -0.001018621060921462 0.003913412967692398
939 -0.0010900008555265093 0.0001906189422321403 0.0016858509698003147
937 -0.003141057006752378 3.2274613757014283e-05 -0.0004923462128676505
938 -0.0020583971953700196 0.00044669000865833687 0.0006734554720033926
1207 -0.00056770393850257 -0.0019074853176897215 -0.00010992002177763519
1208 -0.0003563044169811732 -0.0018378879205501824 0.0010708141257832749
1209 -0.0003988300432312434 -0.002081661174565518 1.5845542404187067e-05
321 0.004687444601097355 -0.0028729521657830737 -0.00918896404210038
322 0.0042702293957871205 -0.00017588999486062006 -0.007329455023251778
324 -0.004934276844208165 0.00010331116067350082 -0.0032245126014839474
323 -1.5223976825955155e-05 -0.0005668421249377865 -0.0051527390646434945
980 -0.0028756876672703744 0.00206501772666682 0.0015711889507549113
979 -0.0019640803640516256 -0.00025921819210202236 0.003250828861191544
981 -0.004466297860907572 0.0039528465976909535 -0.0006516843271506427
947 0.0014160547604152272 0.0015238452408730331 0.0017121020624909593
946 -0.000955704211112853 -0.0005328940874771492 -0.00014781080487097213
948 0.003548978110963848 0.0031944381155636983 0.0034425988631272618
1293 -0.002139494493279882 -0.0011564091398379626 0.002307022366801482
1000 -0.0026948924921424396 0.0020839758746614336 0.000785548109372706
1001 6.735349296706611e-05 0.0003474693455010953 0.0005587330922477346
1002 0.002571807431754424 -0.0010881751989163732 0.00046042610067182976
167 0.0004894422374025769 0.0003393686301101091 -0.003963321095265857
1140 0.0013001966168501677 0.00023896036570858985 0.003917041211727742
458 -0.002661402945343346 0.007856384016834835 -0.0033792470768842786
166 5.057687517091779e-05 -0.001240727619527008 -0.003281505898506233
1044 -0.0016882226788903865 0.0017967029414775858 -0.0005395600333534247
1043 -0.002532148678953828 0.002233913316011932 1.7344227618471724e-05
1042 -0.0033818835659298004 0.002625522368596442 0.0006725883300849117
1027 -0.006164673459014256 -0.00627486876183304 0.00297689783932008
1029 -0.0006109559906412453 0.009772554817534168 -0.0025208731737837975
1028 -0.0033312453720209774 0.0017508048415009777 0.0001984032563530416
213 0.0017046029971720372 2.8533516690487016e-05 -0.0028908923697073333
789 0.0029969815729204074 -0.008185173819528557 -0.008720738000540854
319 -0.00453977468402546 -0.011635559775352598 0.012771545121105662
839 0.0005306946395912861 0.00012044172212144294 4.256348105665453e-06
840 0.0010752101112126266 -0.0016923055736504991 -0.0018470644367236005
838 5.121190627596435e-05 0.0016937490225991186 0.0015541622586523857
878 0.001384730956246921 -0.0015339590211103666 -0.0012332873851484518
879 -4.6534402606212934e-05 -0.005888638320183053 -0.0022561388945920714
1430 -0.00037985557553400057 0.00046584180511221137 -0.004229091984267564
1431 -0.0010881200509881344 -0.0004730498914068919 -0.006892742553612998
1429 0.0004912239004955579 0.001180335840846135 -0.0014162170384170562
877 0.0021502273839795367 0.003011176580081092 -0.0009496105272060393
1268 -0.0024748835103892857 0.0011392986325057326 -0.00304900124938434
1267 -0.002075262124771597 0.0008413421903194315 -0.007081145038180736
43 -0.018334309326480818 0.009096044888377605 -0.0016487945536297643
45 0.002233641050335624 0.0016466737916840343 0.0038856113545617495
44 -0.007726237853286551 0.005384627682281207 0.001170617502925011
1470 0.0035732613704407266 -0.0035472376267961653 -0.004109115476305964
1469 0.0019889704237971537 -0.00353672975806041 -0.0023951109632934153
1468 -0.000764959596868616 -0.003476157839485112 2.038179412481567e-06
13 -4.844666207674358e-05 0.0016805525228636112 -0.0006794384094427847
14 0.00025979270648957453 0.0013910473367275981 -0.00030201120096868026
15 0.0007558009729640918 0.0010356469288947251 5.932079176781636e-05
968 -0.0008310872930886625 -4.781655067492542e-05 0.0013815715053982832
967 -0.0005702750504186172 0.0019626909242002207 0.0001713758374236917
810 0.0015009984344303933 -0.00044583719236159603 -0.0024893368792917045
809 -0.00020133870760068675 9.537477104895998e-05 0.0003485639023367646
808 -0.001880677667811911 0.0004448682952725153 0.0028675202609345658
1009 0.0037378316524883603 -0.0014102016132949032 0.001746149601062533
1011 0.0005003365277429559 -0.0006908167345709583 -0.0006678112573062843
1010 0.002069583727756148 -0.0010133190815270715 0.0004726418870796627
1059 0.0009595244793077314 -0.0006844016375664052 0.0013544352263544636
1057 -0.003799667817366897 0.0008175365840536894 -0.0007151991470010234
1058 -0.0013663472038450723 7.674059590164007e-05 0.00030655071776325654
1269 -0.0029561501988513393 0.0014030670696175687 0.001216088210542826
847 -0.002491725723296403 -1.618204231009224e-05 -0.0009255687495834489
849 0.0010769396718798788 0.0024314964365467484 -0.001306710621947345
848 -0.0005704461325588822 0.001221428131208083 -0.0011713213093928283
2 -0.00258843545003273 0.0020059121480446493 -0.00335801997327108
1 -0.002343202141961067 -0.0014536446049996175 -0.004264530078790183
3 -0.0028978830757559497 0.0053536237470734336 -0.002455795178748596
1375 -0.009940054095034788 -0.0012044716479137601 -0.003488206767895025
1421 -0.005719364496281852 -0.005536534142389198 -0.0004893753491488067
1422 -0.0013658906995031666 0.001709800132010548 -0.003265268418030795
1420 -0.008752752890942633 -0.008946998932525681 0.004595848040624161
972 -0.00018220122746600225 0.004165936342775965 0.004900854032793725
1079 -0.0005811040610795258 -0.00113882281202804 -0.00040865564721713943
1078 0.00017637364783948165 0.00026027330699789135 -0.0015623296499985763
1080 -0.0012988038624256201 -0.0024866408118032865 0.0005725892759502676
986 -0.0002533499150831893 0.004193465201681211 -0.004636204957059641
985 0.00675617705616155 0.007408962389369269 -0.01781449030003451
1439 0.0008940772006577275 -0.001894045441725254 0.013942616133417471
1440 0.020101489977474695 0.0027431764917602956 0.0018453738618882337
1438 -0.015244392315194444 -0.0067031708921157515 0.023141562916957206
1233 -0.00137159552726983 0.0004944446018360354 0.00188265849521282
1232 -0.0014088504049741767 -0.000903505784591122 0.001500968897872449
1231 -0.0004419245556834346 -0.00162217950889877 0.0012547629189266813
1084 0.014538256912348961 0.004430353783109911 0.00041895236031676416
1086 -0.0016566435006705532 4.723701721140639e-05 0.00397276538869623
1085 0.01143636162536298 0.001547825640754129 -0.002853090157269533
1194 -0.0007129576441441081 8.359287986331847e-05 -0.0039095725641151964
312 -0.005512568143753364 -0.00015596538078061607 -0.00017028399679807165
95 0.003322963078249673 -0.0009817167841390498 -0.003239714794366179
94 0.0013193355146730115 -0.00018933350096525785 -0.0025693348334278406
96 0.004661099967050719 -0.001654764233582477 -0.003988900665085838
1072 0.0029715268725282345 0.003581218394768223 0.0009467501756215631
1073 0.0011523761217837845 -8.533285343788381e-05 -0.002395517914838716
1074 -0.000870563895403513 -0.0033055705877627693 -0.00551869677186839
826 -0.0002442843370312423 -0.0004013867152819509 -0.005511261162667652
846 -0.0020540682013971147 -0.0007225699568284049 -0.0023527231272551306
827 0.0015625040781186324 0.0001138201592548854 -0.0022288312252009574
828 0.0030431859525847757 0.0010727415378700804 0.0007162520755320504
845 -0.0018357551539384903 -0.000976779676755084 -0.002319100840890493
844 -0.0018634026813339536 -0.0010723035960486 -0.002493750706150313
824 -0.00012763468826630227 0.0007658457152012402 0.001849852420992711
825 0.0006360074479846054 0.0011983267315119734 0.0033747146680277494
823 -0.0008039178715086806 0.00036077389121338656 0.00040376315773913893
459 -0.006151749594363673 0.00206267794753975 -0.003525145006021023
1192 0.0026109563269710364 0.00031711651585693957 -0.003751515375102897
1006 -0.003394155022223756 0.0011823106291562495 0.0005800955255403382
912 -0.0017257878446531197 -0.0022725211079501068 0.0006323142554293688
910 -0.0020886715180051234 -0.0016170627843047193 0.0010828608344013604
911 -0.0018619168977772789 -0.0015824502778594015 0.0005347349809207457
1048 0.0011891036734536279 -0.001277929124583137 0.0006714781760481428
1050 0.0014386381164462074 -0.0017641453210963183 0.000511535727241346
1049 0.0014295672204279193 -0.0012867749565131038 0.0008911362948929866
988 -0.0009467952363762955 -0.0007471453520911506 0.004696679716523353
990 -0.0011191593237135688 0.0009724479167803418 -0.002800799778879689
989 -0.0009511906883305204 0.00023746425932584452 0.0011596239908307955
177 0.00038165899698204824 0.010755147027258698 -0.006496940262915852
176 0.003007503314767302 0.006999415515248263 -0.004288313279364104
175 0.006230556520204601 0.0016659588312845754 -0.005256123800029267
887 0.002383727660657066 -0.0007021575762862809 0.002732221609808904
888 0.005066804925210725 -0.002813920918065013 0.0005709902109409865
886 -0.00032242605966115753 0.0012239696063583668 0.005053557593929817
1152 -0.011199085021768012 -0.007980859480935302 0.011006428748363708
1150 0.002994474233389451 -0.014749490232592113 0.012222911692820233
1151 -0.0030835683078286134 -0.011116641024676353 0.011229226343045235
934 -0.00022130413363191998 0.0003266881258740177 0.0003492740357156402
935 -0.0003452528336949629 9.492757961807604e-05 -0.000705474934459305
936 -0.00024648909419644125 -0.0001104103514534597 -0.0016331862963934055
1076 -0.0021670241753905493 4.353169238110751e-05 0.0021157228458727304
1077 -0.0059628773062120125 0.009108202213627509 0.0042599221289118605
1452 0.0019387183991755059 -0.0006259307846955725 -0.0005359050230311362
929 -0.00022893663673093626 -0.0006522922395551685 0.0003670573811130609
80 -0.0021428420406095316 0.006920696295090986 -0.009978225039790251
81 0.0012661548845039935 0.014817734399415965 0.003920409487726428
928 0.0029130110944056158 0.0024758665553596907 -0.0022935068023457474
978 0.00064558294073588 0.00048076750841070145 0.00033662683321351796
919 -0.0010294429324503212 -0.004794221984823534 -0.0004547860392330227
920 -0.0016725708055201631 -0.0005308342693947571 -8.96971945577594e-05
921 -0.0022826762909864936 0.003796930573638289 0.00034947683277296467
454 -0.0017017478380914855 -0.000340920298462711 -0.003426276670755642
863 -0.0012813019309581368 0.00013461652773932777 -0.0007912511542581619
864 -0.0026006077634078396 0.0027454630637055604 -0.002990872135907982
455 -0.002044650159644065 0.00086593170392503 -0.0017438622884936115
456 -0.002135055959910764 0.002104643505242556 5.186510878905289e-05
862 0.0002811850789406969 -0.0022557369673527378 0.0013733927062632707
923 -0.0016918057818069657 -0.00032817116108225267 0.0012776787980464121
924 -0.0016629926847904224 -7.497594660714925e-05 0.0014885038657690632
291 -0.0002748477302149633 -0.00019140325473706058 -0.001373281369525869
139 -0.002355698072194936 0.006590081655475178 0.00660392746668764
141 -0.003964843387861785 -0.0036156282166619875 0.005040771399516376
140 -0.0032994991262580613 0.001772658333018044 0.005845626857793498
795 -0.001482111693185277 -0.0009064729239851765 -0.00021254306744511702
794 -0.000790839360045917 1.2599133054240826e-06 0.00010778141508722966
793 -0.00012187279816554452 0.0009232297920231125 0.0004197346287993576
1090 0.0011631274893808801 0.0012539926053764844 0.001157160249007385
1091 0.0027005836423482934 0.00039824168559056617 -9.209061927539276e-05
1092 0.0043020225049309 -0.00045543302525061517 -0.001313012287314753
1087 8.974356291857704e-05 -2.1784594258484408e-05 -4.122306491162531e-05
1088 0.00014332991309319476 9.939510295529291e-05 -6.437867631884241e-05
1089 0.00021483854054662162 0.0002916946204903759 -0.00011533598629760937
1479 0.0009419405140861101 0.0009992171651998876 0.0014063757170124863
1478 1.0693462741474581e-05 0.0013096459277291866 -0.0027213817501563985
1477 -0.0007884510797874628 0.0017826020022485849 -0.007273395626905551
490 -0.001593035761673565 0.00035808348513468376 -0.0020916617311520554
491 0.0035946426355066207 -0.0019536311416732907 0.005882936672795375
492 0.008907044381239258 -0.0043210739481788175 0.013946535626529092
1082 -0.0019307851451644883 -0.00246360322156482 0.007882165489364351
1083 -0.0009238642541254557 -8.875891385232196e-05 0.010722686098355399
933 0.0005247735992039624 -3.939401328794299e-05 0.001551466752254412
931 0.0010082140970223573 -0.0009366327988264394 -0.001181986525483857
932 0.0007152621772644265 -0.0003482823948525218 0.000545577461588121
1447 -0.009720334585419309 0.029000572869292567 -0.018899195735923097
1448 -0.008968386123790832 0.013279298806435136 -0.014345348746573021
1449 -0.0076877432796893875 -0.009156868548510187 -0.014371070598892144
803 -0.0007869964385832319 0.001892454413575079 -0.0001988871118588273
802 0.001411978008130237 -0.0005805642812956236 -0.003952105257587026
135 -0.005224475662831328 -0.0020721741896653624 -0.005800226505378149
134 0.0003551444387939662 0.004049465021678296 0.006135533197889903
804 -1.4415035428259632e-05 0.00013451237656147405 -0.0002216049992666689
348 0.014668088161686523 -0.0017094808610696214 -0.007895265645268743
347 0.00975681243134354 0.0031712218569928795 -0.010054122541575543
346 0.0009404061534855696 0.012080492219715765 -0.01315992789584762
1219 0.000754238294935974 0.005868542715445135 0.011193641659422078
1221 0.003845278932609411 0.004295157937679013 0.002695285424906814
1220 0.0026433222365381988 0.00584658345678134 0.006360910675827267
973 7.779743116630543e-05 0.0016188310325608692 0.001897451355063429
974 0.0011208106318826956 -0.0006823380475127339 0.0014879130543912222
975 0.0022387818890541975 -0.0032113963919945367 0.0009823424771631876
121 -0.0038447576949985217 0.002393201131123068 8.958632965501938e-06
123 0.0001314482301336846 -0.001623803034202791 0.002611293160165638
122 -0.0018376689398701916 0.00020215670384934826 0.001338844421943732
906 0.00019495080178495087 5.23308310867805e-05 0.001419659119204919
905 0.0004122699454029962 -0.0003205782080855397 0.000981315390980808
904 0.0005537828977934705 -0.0007341427160736545 0.0005043866815357258
976 0.0013489245639312418 5.9505325885203926e-06 0.00018496015335751442
977 0.0009519536413713581 0.0002702127984096028 0.00025417138766245783
1013 0.0009159918459276609 -0.00013881049636725617 0.0007908370050954332
1014 0.002608480057915039 -0.0001482900769943365 0.002104699743027165
1012 -0.0005308297873764677 -0.00034486606131415974 -0.0002216697155244037
1030 0.001834304501366229 -0.001956634849137154 -0.0064063058060282296
1031 0.0010880012916810893 -0.00048803113978940167 -0.002389964168377954
1032 0.0003907012774543807 0.0009519708269595662 0.0016005229292913497
922 -0.0016602189938972327 -0.0005534329253667307 0.0011702646589231453
1142 0.0004049739587724643 -0.0015484203544309078 -0.003077044180614757
1141 0.0037934900482344664 -0.0007072869722544557 -0.001229855386867563
1143 -0.0025689509895509455 -0.00289309028158049 -0.004890995858899564
349 -0.0024618785867711714 -0.008908695558588578 0.00017450011348669434
79 0.0028050970011429506 0.009944526596361082 -0.0017981233895005067
351 0.006678709567043113 -0.004025254941655023 0.01000621492040928
992 -0.00047530980108205343 -0.0011348406897223882 0.00019353021502443283
993 0.0008410230067038305 -0.0003183244839985113 -0.0004132442153468494
1015 4.4983690897125114e-05 -0.00020892351873001003 -0.0014392564727790315
1016 -0.0003917309721604913 0.0005929057771198456 -0.0003847791160943767
1017 -0.0010139689453791453 0.001062678088983033 0.0008396923115169634
991 -0.002192655102499198 -0.002056299460858857 0.0009932910143172096
1081 -0.002943900457188661 -0.004950237372522643 0.004962777752037646
853 -0.00021571098399205787 -0.0003944922256270185 -0.0002865992975610037
854 1.8993515460566804e-05 -2.5395622695330425e-05 -4.484907727244181e-05
855 0.00024213925477589723 0.00032652325892797054 0.0001843254605696546
901 0.002031941319356501 0.0013606702372150714 -0.001975406830329124
903 -0.001824141238317565 -0.00016186581614631158 0.0018812670835005988
902 -0.00011250600802867398 0.0006334907331019057 -4.235234481565951e-05
963 0.0002523786580546147 -0.00015404465636956752 -2.9577530124145728e-06
962 2.2797487576294466e-05 0.00014507016981107895 0.00010908400154059545
961 -0.00021809612890026699 0.0004962091336223742 0.00019677847192516317
133 0.004779086283730128 -0.002748989829032678 0.0018434659325763832
1046 0.0001238148202997573 -0.0001707625226579831 0.00013026495624304322
1045 0.00026901784439486255 -0.000271486370945765 8.432014600763353e-05
1047 -0.0004208397170798448 0.00016320930054208378 0.00030874869230953817
1034 0.0015323143425151717 0.00016666627210769333 -0.0006586900594505486
1035 5.226266425847724e-05 0.002192897458325506 0.0006433864149656988
1033 0.002779021972781137 -0.0017920381827011844 -0.0013184787889893163
1433 0.0008806471705979769 0.0005289961751508575 -0.0008327405361162977
1434 0.0001128993429406795 -0.0008581802595198521 -0.0006853843255506626
780 0.0005422015071867577 0.0012093444927049628 -0.00034057221389547347
779 0.0007636146306249661 -0.00023227945086458178 -5.8387074502224724e-05
778 0.0009909841100631336 -0.00166066278288553 0.0002211373459158364
585 0.0012765986618677152 -0.005013423551292685 0.0006459861536551373
589 -0.00037913945896790835 -0.00012875445591859822 -0.008258216488971536
590 -0.001284563327545004 -0.0005366778427288696 -0.0066950982377853826
583 -0.006658032339754806 -0.0008035350821551717 -0.006461054418452156
591 -0.005341817165855468 0.0017386601028580885 0.001472055710511726
584 -0.005007448716596611 -0.00202165224471289 -0.004526953051163214
1292 -0.0016749148608343407 -0.0012818773342908804 -0.0015509532117361266
792 0.004978825416746006 -0.003341966184601355 0.009712271435929086
790 -0.00011073805394321049 -0.007712467895244992 -0.002190693121533806
791 0.0024709192747102535 -0.005622761417851901 0.0033754414244021934
1240 -0.004373633429246838 0.0002480789012687635 7.794975139054044e-05
1242 0.005244191348376524 -0.0023845964763917573 0.001144565629080137
1241 0.0009560358766175273 -0.0009463574751002261 0.0008617446237874733
350 0.002041364961717365 -0.00602421159351546 0.005963712802294544
100 0.004248115245839361 0.004328605724753245 -9.326133469237355e-05
1444 -0.002813220063605586 0.00957449080207063 0.005442133814464498
889 -0.006093143541446093 0.0007296710769233527 0.002238171272191986
1357 0.003085649409816472 -0.001963887995292238 -2.3978142651865075e-05
1359 0.0005458689603567486 0.002048624444978016 0.0018588198943120546
1358 0.0022216487244126272 0.00019380424322012127 0.0008672962193040234
723 -0.00012956220050686993 -0.00278153565072592 -0.0013465528715398975
1270 0.0006021939935050777 0.00020790934894738723 -0.0017853827365153876
1271 0.0005625215605553423 -0.000681671640148992 0.00012283839903003287
1272 0.00037997376117480795 -0.0015605899363370624 0.0017837241489417847
1336 -0.0012210258926940198 -0.00020007812892324482 0.0006873345852351009
1316 0.0034218166211165287 -0.007090448090637773 0.009108900258287951
1315 0.011944712606804344 -0.011274575742535023 0.0019303084583615832
841 -0.00023413908899541224 0.004128788515721269 -0.0004380945479280381
27 2.5656328282651114e-05 0.003492224417014171 0.000672836989438208
26 -0.003242954795194401 -0.0006102220683394015 -0.00042274368539729805
25 -0.0077330312034323305 -0.00018499487983660986 0.002219674463504792
63 0.0022236274589316324 0.0023448172082992788 0.0016997329111883511
815 0.003441281991366325 -0.0002601069374676853 0.007477528210175289
816 0.00953916848440137 -0.0001205349238212072 0.0044472999536943275
1400 -0.0006908817448268684 0.001698530338491018 -0.004457391618082508
1399 0.0014749959716810813 0.0005292327858891485 -0.003272375691959331
662 -0.00022056904451649387 0.0023953942572026844 0.0006152909442010325
663 1.6733119633840344e-06 -0.0010853508598341933 0.0019330457575848312
661 -0.00039465883828350336 0.006769831360314975 -7.355890482605614e-05
430 0.002938253448562041 -0.014194119758597324 -0.0020220908322054723
432 -0.005039257065186183 -0.0050878256747030745 -0.00948756467882718
431 -0.0005841281915980662 -0.009935343697178205 -0.005550512815310688
1435 -0.0008915745202859916 0.0010103794500572476 0.000912027127458947
822 -0.001737040515010102 -0.0009944603736833204 -0.013147011321294583
571 0.0027583483355972725 -0.0032352554003320278 -0.0005920602255066949
1259 0.002171578127041749 0.0023634498966451727 -0.00042565711745807367
1260 0.0022032882372402807 0.003076638032244458 0.0007306816568043321
1216 0.00475200386382986 0.006699925497747443 0.0015158758305576965
1217 0.005535248483346693 0.0032336185478446097 -0.0004568188450584074
1218 0.006390159591226781 -0.0006741358809101484 -0.002641612831529329
753 0.008870665836675399 0.015568061827965872 -0.00230894643007526
752 0.0065329368520599795 0.01758975410016191 -0.0044377199111921345
1258 0.0018658361386170654 0.000987578443933639 -0.002457200336070758
1118 -0.0007816689786594142 -0.001134520104981351 0.010772382285402286
835 -0.0014072391386499767 0.0018773557311065826 0.0006087528888543782
837 -0.002031468872908502 0.00205536010529174 0.0007501920182233107
785 0.0030896706507460526 0.0017759222472228204 0.0009571988475709466
786 -0.0008202807144784983 0.0025961506447024704 0.002091073247182732
918 3.5451853631698026e-05 -0.0005709266763387978 0.0027268729037268277
917 9.299914174500332e-05 0.0007491975472415275 0.0012570024571068995
1432 0.00044650888463664175 0.0007923322504057679 -0.0007011800571285378
390 -0.0012103729823996687 -0.00036165218807542753 -0.002971629781613828
389 0.00011890423931465781 -0.001369388753263255 0.0011552922525573442
388 0.0016307277958717253 -0.002888657033364282 0.004381109282447996
721 0.004561968904001289 0.0018309359282134626 -0.003363450122685541
722 0.002274508971235249 -0.0002565748392095115 -0.0023882933933974436
61 0.012255548681764256 0.0052876346747098854 0.006417655498198383
62 0.006896988314465866 0.004116186267654977 0.003688084794693011
1328 0.0009339718561806375 0.0009350766925193082 -0.0016084007971473324
1327 0.0026247131678757626 0.003510749820969386 -0.0035461669958884914
1329 -0.000891533012390799 -0.0013561104939481413 0.000608753454587263
814 -0.0028155588038151665 -0.0007114239714456556 0.010158360210067465
1401 -0.003082669570648145 0.002742428932171857 -0.005813664028453625
1093 0.015868758958956376 6.606196536813358e-07 -0.0012510377691444254
1095 0.004977368234415172 0.001963700066088203 -0.003807177362836594
1094 0.009533631698065084 0.0013942769301726625 -0.002896681745362872
1364 -0.0007529989192383986 -0.0008212704896134127 0.0016181982321002023
1365 -0.0011994943250362023 -0.0019005450695185238 0.0022117822411508964
1363 -0.00023408326300769549 0.0005519624729855657 0.0006966918652578122
1110 -0.003432410712894527 -0.001642836148909967 -3.748849139561492e-06
1340 -0.0006192645133712132 -1.875401677786031e-05 0.0012005725850365236
1339 0.0009437390323583332 0.0005154479330232274 0.001410393858465427
1341 -0.002179813870821318 -0.0006622538058378837 0.0010180922368567744
1300 -0.0006833943218562247 0.002569926939636159 0.0014886992374377528
1301 2.0758531714316626e-05 0.00044620696103894573 0.0014377282297276573
1302 0.000868934338516542 -0.001756129010158268 0.0013152268639045428
1416 -0.001108165483929285 -0.0022589556733438603 -0.0039452327746493055
1414 0.002689080291488814 0.002987720809432388 0.005017287322014976
1415 0.0007785103796656831 0.0004131461527980181 0.0007202001495272242
1230 0.002230782445910565 0.0014396633206287454 0.0016297624546717205
1229 0.0014668330230080834 0.0006730567077318602 0.0001097152023312283
751 -0.01060317777557836 0.025188214318931753 0.0015764994674276973
1158 0.0010853659939885675 0.0052658623607303254 0.0018376398524591882
1156 -0.00046546098290003437 0.0019925291723752276 -7.86478802895753e-05
1157 7.968341107441077e-05 0.0033506934933254587 0.0009837727793788123
1464 -0.005373782669912574 0.001242746001747239 0.003146536330189912
1463 -0.0026610813173905128 -0.0005619368892467703 0.003134444352970777
916 -9.148449284194178e-05 0.0015486713031407763 -0.00014236835810451095
1309 -0.0007969429231732989 -0.0019800526563663813 0.0009687197563148762
1310 0.00038960459539194933 -0.00044490420557919915 -4.246127204706802e-05
1311 0.001607691962451586 0.0011435268128328576 -0.0010773866165134753
1123 0.0003945098452283739 0.0035356040530419566 -0.005044253424038688
784 0.002058928528205555 0.0009386759828998409 -0.0013446909615000382
1228 0.0021812213785561076 -0.002371444888860041 0.006290050980804944
1145 0.00027956307387168723 0.000923445493316693 -0.0036851690861243037
1144 0.0012997577148026328 -0.0010650224394719767 -0.0007227179337789741
1146 -0.0010678026081105336 0.0034208780788942974 -0.004669319081971342
1462 -0.00050851234531768 -0.0023156040264636266 0.0027002440306165545
1125 3.474223913145997e-05 -0.0007876494778085048 -0.0005174741917038123
1124 0.0008534132396325786 0.0008302016351517101 -0.0029611614742510125
497 0.0005375521596116281 -0.00031661997594586283 -0.0013562885326302517
496 -0.0007427921928315055 0.0011615016244902869 -0.002399616324505672
498 0.0016511828636824161 -0.001662711596675078 -0.00036728363177860826
843 0.0016882432090717374 -0.0022343268544266193 -0.0009887478242312003
1491 0.0008270015377665299 0.00019222276790756388 -1.725854041939722e-05
1490 0.0008225195125977398 0.00021805125876653864 0.00022861643439387347
1489 0.0008368792330317838 0.00025117281516195446 0.00047684845479219505
1355 0.0009387872723940003 -0.0012680347006076135 0.001229338328762277
1354 -0.0018780774225841447 0.002410724880237055 0.005918801967261947
1356 0.0037603733413803914 -0.004964730282506513 -0.0034707814209089705
444 -0.0005671741689176046 0.0014745867034718155 0.002233592260577813
443 -0.002399809651542868 0.001824089387409702 0.00181245423613077
442 -0.006035404204111118 0.00038755989963287714 0.001321584675398771
527 0.0026126491741018747 0.007394638616626672 -0.004538537665028624
526 0.005078428944414372 0.007928088477033243 0.0029710917331846613
842 0.0007153041493993861 0.0009604891745371136 -0.0005824572842945069
405 -0.001547033098479577 0.00501147722443834 0.0012641801568423626
404 -0.0012751132086989722 0.0013846906580280245 0.0005765026168375306
403 -0.001062004764401116 -0.0014769993974140638 2.4107069086645087e-05
4 -0.0016612595867569167 -0.0030460448379634433 0.005202325643766586
5 -0.002761957313927729 9.25670792717782e-07 0.0021931975945881144
6 -0.0038558799312987065 0.0032489597004004473 -0.0009720843869599931
521 0.0019042519906029155 -0.0014729879857152902 0.0015898761166802911
520 0.0029925347986050135 -0.0018511265533128712 0.002987760757184555
522 0.0011343442445311072 -0.0012900345600746553 -2.2963407090281607e-05
588 0.0006338115825434882 0.0033321595575843514 -5.0594295377195105e-05
587 -4.97447648503293e-05 0.0023618452006003753 -0.0006427217712726325
586 -0.0004259376832609447 0.001574569625104248 -0.0007199166608658324
416 0.0021328511567196354 6.734570602095841e-05 0.0022240699699621986
417 0.0017791072231600384 0.0033796688879545026 0.0026936673697517772
415 0.0024495268963128612 -0.0037262707824309836 0.0017552533763080511
508 0.003202884985712444 -0.006730855372085556 0.009475440117499975
745 0.0003992541601492078 0.0003547862377781057 -0.001626489099597921
509 0.008927093197495541 0.0012385292628761693 0.005451934481529753
746 0.0026622243907428577 -0.00032829508098282547 -0.00022034926986753503
747 0.004577401429460325 -0.001285746800844608 0.002421035599655028
546 0.006436664204259232 0.002274713576142769 -0.000797318045829549
544 -0.0026867269555048297 0.0034845999892653017 -0.004375773804511742
545 -0.0016854234693220364 -0.0009695889976724247 0.002664349117766199
172 0.0011680184158580126 0.0076164974464065964 -0.001932813449525501
173 -0.0024997254131612127 0.003841237612695149 -0.000831051250415765
174 -0.004280212373672758 0.0011927430770954312 -0.00016186208932867873
1457 -0.0021629113279287774 -0.0011774851413638146 -0.0010357233094664589
1456 5.093076305833759e-06 -0.004199557145050029 -0.0011054197096838142
1458 -0.004337227194722455 0.00198576156026347 -0.0010820199970589318
1149 0.0027726864974603523 -0.006127815358827531 -0.004779369816932387
1148 0.00027543937955157104 -0.0018602290723092791 -0.0013691003423785789
1147 -0.0022649276240782057 0.002372019985462556 0.0020562785048544685
510 0.016262326695531158 0.011341511593407027 0.000331736346972186
1036 0.0018610914245650867 0.004813510773843037 -0.005121535950840479
1424 -0.0004878758128387018 -0.00109096806151743 -0.0005161257904499859
1423 -0.0003688935745749365 -0.0008099344110495497 -0.0005192838690982629
1425 -0.0005560824573509285 -0.001351197538215351 -0.0006685468939526493
1037 -0.0005995631064372744 0.005211146817402386 -0.00473071212907957
1135 0.0005954393886489302 0.0026640674401099407 -9.605785741588789e-05
1136 0.0017522832229755461 -0.0014232287111571572 -0.0019985313840383636
1137 0.0021965798636128637 -0.004424975311062778 -0.0027581635868091773
1109 -0.005892893043314597 0.00405837263472943 0.0008654555823302982
1108 -0.005112199892919938 -0.00227653139811775 -0.0013748628381524217
1252 0.0007572691539076485 -0.00011595270093312167 -0.0010569141167397638
1253 0.0005626050974794521 4.06368660488229e-05 -0.001193842185457484
1254 0.00041545905408368205 -5.050777497100707e-05 -0.0011869633313859652
1323 -0.002833734565945632 -0.00021105444846591964 0.00429189307385954
1154 0.003258740403510421 0.0017105918336495496 -0.00021876741197157418
1322 0.0011528655698507387 0.00015005714295217236 0.0011508437948776018
1153 0.0017211667679167299 -0.0025187249105152448 -0.003426353118807373
1321 0.0046193189144040315 0.0008398009488129515 -0.0019486839261805883
436 -0.0007533409386531006 -0.005687677814876531 -0.0026629325961986397
437 0.006317143274905961 0.0067019177931313765 -0.0002055696034726729
438 0.01610456484136574 0.01458483748665621 0.009447279067819407
1204 0.0006796897141544894 -0.003047474220389637 0.000862751908072951
313 0.004428164241797141 -0.004155745393423004 -0.0026377372713291356
1205 0.0008176873579589671 -0.00143991669056443 -0.0006259314203503972
315 0.00271635521069251 -0.0011180665122953954 -0.004311611526239476
314 0.0036422040986577226 -0.0026531133037406103 -0.003526762571104795
181 0.0013919638164677241 -0.0035356472763171734 -0.03920812134391885
182 0.008488689327840143 0.00247400717148338 -0.003571702550693153
183 0.013841086406934888 0.012704897990683587 0.025943324144356742
773 0.011636206709452333 0.00367784724244678 0.0002744119880436748
774 0.026366002062666018 0.008202154638144254 0.0023484291740922983
1182 0.007135158077757421 0.002904054170318822 -0.0016143950275388952
1181 0.006614316872604147 0.0029686825452126674 -0.0020831706878664145
1180 0.006188426499510475 0.002812404048223915 -0.002567430630496125
1130 0.0008988731576621237 0.002208593478284765 -0.007016257682880164
1131 -0.001350379645262863 0.006537485048226551 -0.009713054722211002
1129 0.0024938642512884563 -0.001974489954655469 -0.0039617049850168284
573 0.0005052050794923441 -0.0067000257422661115 0.001717838082529669
1314 -0.0022634773508595886 0.0009917775524404997 0.00018568633402086897
1313 -0.0011869185831004606 -0.0011090385548691841 0.0003097396523486016
1312 -0.0002802161472719876 -0.003366247644818493 0.0008167822646193825
105 0.0002770995031191664 -0.002387111279429106 -0.0013550322668118902
104 0.0020313809515714065 -0.0017121345876100864 -0.002186786130080016
103 0.004252241194994359 -0.0015876375221289154 -0.002371291699379987
1281 -0.0005561850330113406 0.000259310374120008 -0.0016529686363046037
594 -0.0007263391454439071 -0.0005060154865162426 -0.0005204839262178862
593 0.0011876026411827938 0.00043075781065622957 -0.0004168615172205281
592 0.003117521539736218 0.0013640378072502738 -0.00025708304015563106
744 0.0028306685579033764 0.0031047205350639632 -0.0044872136423803445
743 -0.0004908620481986031 0.0014824218002487681 -0.004629831599203028
742 -0.003591295098383165 -0.0001015681410710901 -0.003626009392774581
1201 -0.0029024781959163873 -0.001138152298259122 0.0027074168775492904
1202 -0.0007857070562556359 -0.0014601230325136535 0.002316879425702811
1203 0.0013124115872006094 -0.0018374781192897198 0.0018788311714731383
1303 0.002826048686240192 -0.00037637453741847773 -0.00014763672035087667
1304 0.002318639629076865 -0.00020917189848338987 -0.0003950468017591278
1305 0.0013821076997346685 0.0005624597739206384 -2.917623327232781e-05
1195 0.0026794641687826397 -0.005639948805235363 0.0020302521997930395
558 0.002629783130169779 -0.0006672465838031483 -0.0015886998783717636
557 0.0025693864926537822 -0.0009847626195494997 0.00022784081778849495
556 0.003948013100400581 -0.004176605933881811 0.004641055259448005
1388 -0.0049906967679915 0.0007851639584975234 -0.001420624538663532
1387 -0.005411649174659447 -0.003568810268153307 -0.002983529760454515
1389 -0.005030271895203181 0.0050757990086646 -0.0004104407539595778
1275 0.004570379388513633 -0.002230044391360993 -0.0010946514327421393
1288 -0.0024616356430557473 0.002348861365009441 -0.001006930779020561
1289 -0.003445502146671851 0.0017065814021704454 -0.00010874199833574314
69 -0.0004531286637403546 -0.01679896653670541 0.0035227655030170726
68 -0.0012409962669741128 -0.010311142476010374 0.0032513410118842393
67 -0.0017520744451485534 -0.0028947169811862202 0.0028721621246922476
1120 0.00031951745930496565 -0.00040836638103563855 0.00020194290663699246
1121 5.615109856822783e-05 -4.1106001229324025e-05 -3.6838085586481345e-06
1459 -0.0005446718025825969 0.0004697280901782557 -0.0006322135881009059
1038 -0.003274076611969427 0.008090383038727323 -0.006874370928254703
1197 0.00550644038467816 0.0029469229326262694 0.0017367840558202203
1496 -0.00020175618571572466 -0.001214600099654139 0.0018389530928631219
1495 0.0009724173393905748 -0.0008921038747749799 0.0034783467255205874
1196 0.004142671065181347 -0.0012298386249306526 0.0019110259626717574
111 0.007384709335556049 -0.007288831573496637 0.004633265976575159
109 0.005431852005292217 -0.001488628722471718 -0.0018850125001437419
110 0.00629617695086685 -0.005956526616509476 0.001128157119894841
1407 -0.0014543551288603996 0.004551407711724432 0.007518234578297975
1273 0.001551825214679999 0.001026322665265556 -0.004486937079812468
674 0.003081820203713434 0.0037543411141849163 0.002266916169644958
675 0.0038816755731285735 0.0029099034617588184 0.00260819441431978
673 0.0018734173805747825 0.0029798262422451706 0.0026717563512337608
1274 0.002925177747069879 -0.0006674525551282445 -0.0027844161918343007
1290 -0.004156134533173025 0.0005602069610020947 0.0012078915357318888
709 -0.008045566144107221 0.00039205188252790615 -0.004407595223079289
710 -0.008458627869446478 0.00022457605951747302 -0.004070391866415237
711 -0.01136931733894995 0.006884592594921103 -0.0071062207487719
1297 0.0017937913359269359 0.003193394807869295 0.002051220327376178
1155 0.005091918381053117 0.006227684260865585 0.0031599009249122932
983 0.0057725262481862875 0.0024065519420504054 0.002794915874675607
984 -0.0019350324573769492 -0.008042860431990059 -0.0141397839491443
982 0.01568552752445293 0.0122971336845515 0.014139797710781306
1190 -0.0013553129748676447 0.00014002036856443603 0.003277411339934111
1191 -0.003077941297471734 0.0032308834994470383 0.004528148104579294
1471 0.003044808523288376 0.002492632214753586 0.0025879639467916503
1473 -0.0007052821244313879 -0.006007971592911928 -0.0012859795892411054
1472 0.0015932065707453746 -0.001272762134744405 0.000850300761067183
1406 -0.0003072694498329991 0.004625486709171952 0.007655244566387787
1405 -0.0012190361833687255 0.003978026895888481 0.008236414076595118
1206 0.0009399008136410758 0.00022982508619599757 -0.0021708724730376
1266 0.0059439982720292245 -0.0025056401880871135 0.002351031563506597
1265 0.0006380621091953746 -0.001427631858523448 -0.0006810750518288997
1264 -0.0047654915758414546 -0.0003565163731298531 -0.0037537898928402804
1226 -0.0011017441376397594 0.004510403300077506 0.001562763703534832
1225 -0.001298855048125701 0.004683036849628874 0.0024823555564990048
772 -0.002922114489846113 -0.0012318032746081466 -0.0017849408569896737
1179 -2.814242967018336e-05 -0.00417290580493617 -0.001470196100161569
1224 -0.002818214991957405 -0.00020203437142474122 0.004468013437669595
1222 -0.0015180084580953756 0.0005613262526744215 -0.003795909719516727
1223 -0.0020516354917467132 0.00036432836919506295 0.00013048208703706952
1342 0.003946587261608936 -3.387517474590334e-05 0.0031056171343118786
1343 0.002299163736796763 -0.0012246326764124976 0.0018733710044192102
1344 0.00042046831993710856 -0.002617475665355978 0.0003612610454440357
1279 -0.0003889498446281773 -0.00038818258549781304 -0.0018258349928614132
1280 -0.00029857881657262774 0.001900435951079104 -0.0017646038072869255
1119 -0.0020054485576718843 0.005907269521298458 0.02100082361778669
836 -0.0015230280066342694 0.0018110255465206347 0.0006498459895338026
1317 0.0009284102995565254 0.0031449689769471 0.019198670493976656
88 0.001831471901392695 -0.008168370599790089 -0.002761078657260329
891 -0.0007691368141310313 0.00044415268862903434 -0.0029011988074232626
1484 -0.0006497757753069379 0.00013605940253360056 0.001991293841387637
1485 0.00022060915779258597 -0.0003007964338579507 0.003128026585358599
1483 -0.0015702263782703895 0.00038142610763248835 0.0008646555681143792
1296 0.0012658362854448268 -0.00014256437241265423 0.0004622026119912129
1295 -0.0003787664112162144 -0.0007868468230833531 -0.00014757384576487506
1294 -0.001873556170985104 -0.0015290279640088778 -0.000872896821203396
797 -0.003255709383663793 -0.0017572742855914293 -0.0030182812737395387
796 -0.00015226809213036272 -0.0003993930530943558 -0.0038295776084215213
798 -0.006510941081017203 -0.003144694552853178 -0.0022221371845284046
1460 0.00034033373593087213 0.0007662255296786251 -0.0011103396636315437
1461 0.0010359514641947684 0.0009197960057194263 -0.0015431859824494034
1497 -0.0014973944701352317 -0.0015724169803295158 6.281742746213427e-05
1453 -0.0039368196447069235 0.003111848856615446 -0.0010323144910314946
1494 0.001726373370785337 0.0014469136072245451 -0.00037420491304272514
1324 -0.0043289016358755514 0.0008264835980497351 0.0018746399117318085
1299 -0.0013546389600283797 -4.0844104100366494e-05 -0.00042533099814943596
1298 -4.553829706129837e-06 0.0016448885117704747 0.0005343060482048969
1122 0.00030537177280259186 0.00020937862425236058 -0.0001615279347181804
309 0.0013098397316758722 -0.0014264719488638834 0.00010736122201709968
352 -0.000491204980953205 -0.0038692017747082204 0.0019164314010249933
1428 0.0028479146426853117 0.0014005448518027213 -0.000380759555713628
353 -0.0031461218994420503 -0.004447352550989757 0.0031906907950233414
354 -0.0053759353241060424 -0.0039003189313132794 0.0029079190511048583
1427 0.004807377539314345 -0.0005939578130790596 0.00043477882198136907
1426 0.006000456996392734 -0.0023607029948678297 0.0016412336640932348
1189 0.0004675121533095719 -0.003174517478156378 0.0019959482183425185
550 0.0005530789374963742 0.0018392844489602345 -0.0004637830071364226
552 0.000674887136746308 0.00257271743916646 -0.0019166824251696743
551 0.0005922386246077972 0.0021583891226685517 -0.00105656183784849
1282 -0.0009522298426052539 0.0019940821061726964 -0.0017077265200287808
1283 -0.000997063547634612 0.0018387174923704586 -0.0005152171502823491
1284 -0.00044333548526180654 0.0018201518073237852 0.0005649091928718862
1436 -0.0008620374401334289 0.00032678023548621195 0.001010045268616376
1437 -0.0009705364371852929 -0.001102984341644482 0.0007565039464117163
1126 0.00024648171220345333 -0.00019551165864905188 0.00025244085294118745
1127 0.00022055825659857104 4.172763638069872e-05 0.00017627478926629907
1128 0.00024552303089359474 0.00023868304485171417 9.835650434574846e-05
1402 -0.00022681481807344087 -5.789656793970976e-05 -0.00042877018786097415
1403 -0.00029944731953467866 -5.543166980948066e-05 -0.000260465978782145
250 0.0029616265397828 0.012383852100155966 0.003726690275679361
252 0.003010322730128935 0.005059364460394156 0.016720298164938495
251 0.0036043087124868326 0.010956914828553347 0.011285337770286398
441 0.006903170589823218 -0.00385591211347085 -0.009307781152121166
1178 -0.001616931704018274 -0.003333548040679584 -0.0011447514052167513
1227 -0.0009141431973941872 0.004343419755231307 0.0007970169333665773
1177 -0.0031132576877016785 -0.0024468952576437203 -0.000952039311402575
1174 0.000988474187147407 0.0011316314258841124 -0.0023631505225148878
1175 4.822081588257404e-05 -0.0010281396535129677 -0.0033082253626444506
1176 -0.0008302674306872895 -0.002990513025347425 -0.004333354294599877
439 -0.0012429858820109181 -0.005207761633385386 0.003163460859388161
440 0.0029220108167947014 -0.004533018270386619 -0.0031949414884395117
1362 -0.00017263593042455186 0.003180420806181397 0.0005250535579983409
679 -0.0009713489578886181 0.0014765730635988912 2.8650652928223155e-05
680 0.0003544160454620245 -0.0022761970397135625 0.0004338462057285167
1404 -0.0003920361469569544 -4.240688621619375e-05 -6.665192393938737e-05
681 0.0018035430542087596 -0.005877461553462403 0.0009635376754114481
1106 0.0070235076542221496 -0.0033765061906286353 0.0005887149815546884
1107 0.006886608026074633 -0.007748584650063914 0.0010593594005623853
1105 0.00712422040601925 0.002971907616970605 0.00010627966737757607
1360 -0.007908499154156118 0.0005675416126592352 0.0025787023195316173
1361 -0.00401052081454993 0.0018988960818409164 0.0016151979928709958
821 -0.0019109072663394389 0.0038512409048904865 -0.012470211417169601
539 0.0004917075100431697 -0.0009329403537973096 0.0003414148189465596
540 0.0002448820058699637 -0.0009006641191851418 0.0002697029767514105
538 0.0003735178163166467 -0.0009154252026177594 0.00024958873309290395
1381 -0.000761978755605676 0.0027317523856892185 0.0005664018386518492
1383 0.001066740541641774 -0.004171485730163298 0.002195389068658836
1382 0.00016234962919963087 -0.0006720616935342135 0.0013912965649617189
1213 -8.216718577077818e-05 -0.00014172857030727329 -0.00026025182251438096
1214 -5.327139585850649e-05 -2.932255618621246e-05 -6.547478788133373e-05
1215 1.6963668660662958e-06 0.00013326715528220328 0.00014081959226956993
1185 0.0006198592094739797 -0.0003166941346953891 0.0006065138550213865
1184 6.843066320082749e-05 -0.00028028524059806455 -0.00021854830059175163
1183 -0.00037322436651309035 -0.00018780788506537468 -0.0009817606876030237
1367 -0.0003905107563758479 -0.0001741721942930728 0.0009065336810324402
1366 -0.00017172862909525823 -0.0002099473341696792 0.0005801245867583684
1374 -0.0001220729227530483 0.0019911000034128668 0.0015100569885479922
1372 0.005406314971952547 0.0013361044116271615 0.0010106133054362731
1373 0.0026669754624634836 0.0017589884591062202 0.0010176504682858135
697 -0.000273504343004136 0.0015527360755108021 0.000757477858895424
698 0.0009871367664155573 0.001025613744552825 0.0006120360639924686
699 0.0029071201049493474 0.00012354506478695363 0.0003946227826136198
528 0.00021494116509860966 0.006860173283099705 -0.011958051165586348
820 -0.0038383952653106793 0.007559688709103403 -0.01264369993390688
572 0.00156495887654099 -0.005166826730332353 0.0006795735437336017
376 -0.01221663459089641 0.012777517158591337 -0.022236852760938224
890 -0.0032044566984097134 0.0005648886286263101 -0.0005653074586145836
1413 0.002375107775629027 6.359769063420272e-05 -0.0011379185933671659
1412 0.001399397274506238 0.0027893876716112583 -0.0018694349135506526
1411 0.00021262743408561493 0.0054651590916952545 -0.0027004008173113444
892 0.000288332153132811 -0.0001172714911649081 0.0007416441731081617
893 0.0005592733218020152 -0.0016221461540324373 0.0009622300802606866
1450 -0.00286150841627418 0.0030856539528056797 0.0018206925936767196
1451 -0.00021670982908718567 0.0012972885940492622 0.0006465072660551379
894 0.0008114342190469437 -0.003366683784412156 0.0009861035697894382
1117 0.00046385584783786436 -0.007145348940707074 0.00281534879474401
1454 -0.0006866688782897299 -0.00032862700781982065 0.0005088356952080216
1455 0.0026076357365611676 -0.003759027336422134 0.0021677182717829767
1368 -4.790243439007798e-05 -0.00033393225554846244 0.0006791083965179659
1492 -0.0014861296075227113 -0.0001424513072296938 -0.0018208491558998055
1493 0.00020162950649870183 0.00019723522524962096 -0.0016441244895466843
1262 1.5065175407500796e-05 -0.0020801219865308283 0.002384317974793327
1263 0.0027288101407007305 -0.0023447164251024317 0.00012612193701757435
1326 6.464189305060529e-05 -0.0011140613568224515 -0.0021472173970854646
1325 -0.0021743744096883034 -0.00018889205761951267 -0.00015753936812606525
1261 -0.0024655973856009825 -0.001916703711919257 0.004159750022750534
308 -0.0018550046109961364 -0.0009057199531602991 -0.003450146185414851
307 -0.003628816203040562 -0.0003031138220636913 -0.005737373259417101
378 -0.004757355239244079 -1.946156673926497e-05 -0.005914112077065344
1393 -0.004172755121739469 -0.0004936230938017938 0.002941817753920654
1008 0.0005461847455339803 0.0007269813895268987 -0.0030217433289600505
377 -0.007536674869268519 0.0050633755636177195 -0.012725572359159687

Bonds

1 1 206 207
2 1 205 206
3 1 413 414
4 1 212 213
5 1 727 728
6 1 728 729
7 1 148 149
8 1 149 150
9 1 229 230
10 1 230 231
11 1 1070 1071
12 1 1069 1070
13 1 640 641
14 1 295 296
15 1 296 297
16 1 65 66
17 1 64 65
18 1 425 426
19 1 424 425
20 1 1409 1410
21 1 1408 1409
22 1 725 726
23 1 724 725
24 1 113 114
25 1 470 471
26 1 112 113
27 1 412 413
28 1 55 56
29 1 56 57
30 1 286 287
31 1 287 288
32 1 305 306
33 1 641 642
34 1 137 138
35 1 136 137
36 1 304 305
37 1 223 224
38 1 224 225
39 1 46 47
40 1 47 48
41 1 316 317
42 1 317 318
43 1 691 692
44 1 692 693
45 1 130 131
46 1 131 132
47 1 10 11
48 1 11 12
49 1 179 180
50 1 178 179
51 1 1097 1098
52 1 1096 1097
53 1 265 266
54 1 776 777
55 1 895 896
56 1 1445 1446
57 1 257 258
58 1 256 257
59 1 499 500
60 1 500 501
61 1 1052 1053
62 1 1051 1052
63 1 1021 1022
64 1 1022 1023
65 1 1186 1187
66 1 1187 1188
67 1 106 107
68 1 107 108
69 1 898 899
70 1 899 900
71 1 449 450
72 1 448 449
73 1 221 222
74 1 395 396
75 1 220 221
76 1 394 395
77 1 253 254
78 1 254 255
79 1 145 146
80 1 271 272
81 1 272 273
82 1 146 147
83 1 85 86
84 1 86 87
85 1 685 686
86 1 686 687
87 1 334 335
88 1 335 336
89 1 368 369
90 1 367 368
91 1 364 365
92 1 365 366
93 1 398 399
94 1 397 398
95 1 244 245
96 1 245 246
97 1 119 120
98 1 118 119
99 1 215 216
100 1 214 215
101 1 1238 1239
102 1 1237 1238
103 1 8 9
104 1 7 8
105 1 995 996
106 1 241 242
107 1 242 243
108 1 209 210
109 1 208 209
110 1 23 24
111 1 22 23
112 1 1165 1166
113 1 1166 1167
114 1 505 506
115 1 506 507
116 1 298 299
117 1 299 300
118 1 58 59
119 1 59 60
120 1 92 93
121 1 91 92
122 1 52 53
123 1 53 54
124 1 656 657
125 1 655 656
126 1 328 329
127 1 329 330
128 1 35 36
129 1 34 35
130 1 260 261
131 1 259 260
132 1 341 342
133 1 340 341
134 1 283 284
135 1 284 285
136 1 50 51
137 1 875 876
138 1 874 875
139 1 83 84
140 1 82 83
141 1 1246 1247
142 1 1247 1248
143 1 38 39
144 1 37 38
145 1 184 185
146 1 185 186
147 1 128 129
148 1 127 128
149 1 1115 1116
150 1 1114 1115
151 1 248 249
152 1 247 248
153 1 385 386
154 1 386 387
155 1 884 885
156 1 883 884
157 1 233 234
158 1 232 233
159 1 1370 1371
160 1 1369 1370
161 1 331 332
162 1 578 579
163 1 266 267
164 1 994 995
165 1 361 362
166 1 362 363
167 1 76 77
168 1 77 78
169 1 337 338
170 1 338 339
171 1 380 381
172 1 379 380
173 1 623 624
174 1 622 623
175 1 194 195
176 1 193 194
177 1 1211 1212
178 1 1210 1211
179 1 740 741
180 1 739 740
181 1 865 866
182 1 359 360
183 1 358 359
184 1 292 293
185 1 293 294
186 1 1039 1040
187 1 1040 1041
188 1 235 236
189 1 236 237
190 1 17 18
191 1 16 17
192 1 49 50
193 1 301 302
194 1 302 303
195 1 32 33
196 1 31 32
197 1 151 152
198 1 152 153
199 1 115 116
200 1 116 117
201 1 277 278
202 1 278 279
203 1 1487 1488
204 1 1486 1487
205 1 269 270
206 1 268 269
207 1 238 239
208 1 239 240
209 1 689 690
210 1 688 689
211 1 577 578
212 1 541 542
213 1 542 543
214 1 355 356
215 1 356 357
216 1 29 30
217 1 28 29
218 1 326 327
219 1 190 191
220 1 191 192
221 1 325 326
222 1 1198 1199
223 1 1199 1200
224 1 218 219
225 1 217 218
226 1 199 200
227 1 1480 1481
228 1 1481 1482
229 1 866 867
230 1 343 344
231 1 202 203
232 1 203 204
233 1 998 999
234 1 997 998
235 1 857 858
236 1 344 345
237 1 160 161
238 1 161 162
239 1 169 170
240 1 170 171
241 1 1348 1349
242 1 1349 1350
243 1 896 897
244 1 775 776
245 1 164 165
246 1 163 164
247 1 289 290
248 1 290 291
249 1 626 627
250 1 625 626
251 1 940 941
252 1 370 371
253 1 371 372
254 1 280 281
255 1 682 683
256 1 683 684
257 1 941 942
258 1 226 227
259 1 227 228
260 1 281 282
261 1 200 201
262 1 383 384
263 1 382 383
264 1 856 857
265 1 154 155
266 1 373 374
267 1 374 375
268 1 760 761
269 1 761 762
270 1 155 156
271 1 187 188
272 1 188 189
273 1 958 959
274 1 959 960
275 1 211 212
276 1 787 788
277 1 20 21
278 1 19 20
279 1 332 333
280 1 158 159
281 1 157 158
282 1 788 789
283 1 1475 1476
284 1 769 770
285 1 445 446
286 1 446 447
287 1 523 524
288 1 524 525
289 1 479 480
290 1 478 479
291 1 635 636
292 1 1066 1067
293 1 1067 1068
294 1 634 635
295 1 41 42
296 1 40 41
297 1 502 503
298 1 125 126
299 1 124 125
300 1 97 98
301 1 580 581
302 1 628 629
303 1 581 582
304 1 98 99
305 1 595 596
306 1 596 597
307 1 421 422
308 1 422 423
309 1 629 630
310 1 1379 1380
311 1 1378 1379
312 1 1276 1277
313 1 1249 1250
314 1 517 518
315 1 518 519
316 1 1337 1338
317 1 1474 1475
318 1 1330 1331
319 1 1331 1332
320 1 734 735
321 1 733 734
322 1 925 926
323 1 926 927
324 1 665 666
325 1 664 665
326 1 503 504
327 1 800 801
328 1 799 800
329 1 604 605
330 1 605 606
331 1 632 633
332 1 631 632
333 1 512 513
334 1 511 512
335 1 568 569
336 1 569 570
337 1 434 435
338 1 433 434
339 1 427 428
340 1 428 429
341 1 410 411
342 1 409 410
343 1 754 755
344 1 755 756
345 1 1307 1308
346 1 1306 1307
347 1 1132 1133
348 1 1133 1134
349 1 1064 1065
350 1 1063 1064
351 1 461 462
352 1 460 461
353 1 602 603
354 1 601 602
355 1 670 671
356 1 671 672
357 1 1394 1395
358 1 1234 1235
359 1 1235 1236
360 1 608 609
361 1 607 608
362 1 638 639
363 1 637 638
364 1 667 668
365 1 668 669
366 1 554 555
367 1 1441 1442
368 1 617 618
369 1 1442 1443
370 1 616 617
371 1 707 708
372 1 706 707
373 1 494 495
374 1 493 494
375 1 677 678
376 1 676 677
377 1 475 476
378 1 476 477
379 1 731 732
380 1 730 731
381 1 713 714
382 1 712 713
383 1 1003 1004
384 1 1004 1005
385 1 644 645
386 1 643 644
387 1 701 702
388 1 700 701
389 1 566 567
390 1 1351 1352
391 1 1352 1353
392 1 401 402
393 1 400 401
394 1 1159 1160
395 1 1160 1161
396 1 1498 1499
397 1 1499 1500
398 1 530 531
399 1 647 648
400 1 646 647
401 1 464 465
402 1 1334 1335
403 1 1333 1334
404 1 529 530
405 1 553 554
406 1 463 464
407 1 1418 1419
408 1 1417 1418
409 1 950 951
410 1 949 950
411 1 562 563
412 1 563 564
413 1 782 783
414 1 781 782
415 1 419 420
416 1 418 419
417 1 598 599
418 1 599 600
419 1 1162 1163
420 1 1163 1164
421 1 565 566
422 1 452 453
423 1 451 452
424 1 407 408
425 1 406 407
426 1 716 717
427 1 715 716
428 1 649 650
429 1 650 651
430 1 70 71
431 1 71 72
432 1 535 536
433 1 575 576
434 1 536 537
435 1 574 575
436 1 749 750
437 1 748 749
438 1 653 654
439 1 652 653
440 1 560 561
441 1 1277 1278
442 1 485 486
443 1 484 485
444 1 514 515
445 1 515 516
446 1 613 614
447 1 614 615
448 1 488 489
449 1 487 488
450 1 143 144
451 1 142 143
452 1 610 611
453 1 467 468
454 1 611 612
455 1 472 473
456 1 473 474
457 1 466 467
458 1 737 738
459 1 736 737
460 1 1171 1172
461 1 1172 1173
462 1 850 851
463 1 851 852
464 1 481 482
465 1 719 720
466 1 718 719
467 1 694 695
468 1 695 696
469 1 757 758
470 1 758 759
471 1 559 560
472 1 1385 1386
473 1 89 90
474 1 1054 1055
475 1 764 765
476 1 763 764
477 1 547 548
478 1 548 549
479 1 619 620
480 1 620 621
481 1 533 534
482 1 1390 1391
483 1 1391 1392
484 1 532 533
485 1 1250 1251
486 1 469 470
487 1 1055 1056
488 1 770 771
489 1 1384 1385
490 1 482 483
491 1 1168 1169
492 1 1169 1170
493 1 320 321
494 1 311 312
495 1 310 311
496 1 811 812
497 1 812 813
498 1 1099 1100
499 1 1100 1101
500 1 1256 1257
501 1 1255 1256
502 1 1291 1292
503 1 871 872
504 1 872 873
505 1 1244 1245
506 1 1243 1244
507 1 1025 1026
508 1 1024 1025
509 1 1112 1113
510 1 1111 1112
511 1 943 944
512 1 944 945
513 1 907 908
514 1 908 909
515 1 1466 1467
516 1 869 870
517 1 868 869
518 1 1465 1466
519 1 806 807
520 1 805 806
521 1 829 830
522 1 830 831
523 1 101 102
524 1 457 458
525 1 1075 1076
526 1 1397 1398
527 1 1396 1397
528 1 196 197
529 1 1138 1139
530 1 1139 1140
531 1 658 659
532 1 1007 1008
533 1 274 275
534 1 263 264
535 1 262 263
536 1 275 276
537 1 1193 1194
538 1 391 392
539 1 392 393
540 1 955 956
541 1 956 957
542 1 197 198
543 1 1319 1320
544 1 1318 1319
545 1 659 660
546 1 1285 1286
547 1 1286 1287
548 1 913 914
549 1 914 915
550 1 703 704
551 1 704 705
552 1 1346 1347
553 1 1345 1346
554 1 965 966
555 1 860 861
556 1 859 860
557 1 964 965
558 1 953 954
559 1 952 953
560 1 1376 1377
561 1 971 972
562 1 767 768
563 1 766 767
564 1 970 971
565 1 818 819
566 1 817 818
567 1 1061 1062
568 1 1060 1061
569 1 1103 1104
570 1 1102 1103
571 1 74 75
572 1 73 74
573 1 832 833
574 1 833 834
575 1 881 882
576 1 880 881
577 1 1018 1019
578 1 1019 1020
579 1 937 938
580 1 938 939
581 1 1207 1208
582 1 1208 1209
583 1 322 323
584 1 323 324
585 1 980 981
586 1 979 980
587 1 947 948
588 1 946 947
589 1 1000 1001
590 1 1001 1002
591 1 167 168
592 1 458 459
593 1 166 167
594 1 1043 1044
595 1 1042 1043
596 1 1027 1028
597 1 1028 1029
598 1 319 320
599 1 839 840
600 1 838 839
601 1 878 879
602 1 1430 1431
603 1 1429 1430
604 1 877 878
605 1 1268 1269
606 1 1267 1268
607 1 43 44
608 1 44 45
609 1 1469 1470
610 1 1468 1469
611 1 13 14
612 1 14 15
613 1 968 969
614 1 967 968
615 1 809 810
616 1 808 809
617 1 1009 1010
618 1 1010 1011
619 1 1057 1058
620 1 1058 1059
621 1 847 848
622 1 848 849
623 1 2 3
624 1 1 2
625 1 1375 1376
626 1 1421 1422
627 1 1420 1421
628 1 1079 1080
629 1 1078 1079
630 1 986 987
631 1 985 986
632 1 1439 1440
633 1 1438 1439
634 1 1232 1233
635 1 1231 1232
636 1 1084 1085
637 1 1085 1086
638 1 95 96
639 1 94 95
640 1 1072 1073
641 1 1073 1074
642 1 826 827
643 1 827 828
644 1 845 846
645 1 844 845
646 1 824 825
647 1 823 824
648 1 1192 1193
649 1 1006 1007
650 1 910 911
651 1 911 912
652 1 1048 1049
653 1 1049 1050
654 1 988 989
655 1 989 990
656 1 176 177
657 1 175 176
658 1 887 888
659 1 886 887
660 1 1150 1151
661 1 1151 1152
662 1 934 935
663 1 935 936
664 1 1076 1077
665 1 929 930
666 1 80 81
667 1 928 929
668 1 919 920
669 1 920 921
670 1 454 455
671 1 863 864
672 1 455 456
673 1 862 863
674 1 923 924
675 1 139 140
676 1 140 141
677 1 794 795
678 1 793 794
679 1 1090 1091
680 1 1091 1092
681 1 1087 1088
682 1 1088 1089
683 1 1478 1479
684 1 1477 1478
685 1 490 491
686 1 491 492
687 1 1082 1083
688 1 931 932
689 1 932 933
690 1 1447 1448
691 1 1448 1449
692 1 803 804
693 1 802 803
694 1 134 135
695 1 347 348
696 1 346 347
697 1 1219 1220
698 1 1220 1221
699 1 973 974
700 1 974 975
701 1 121 122
702 1 122 123
703 1 905 906
704 1 904 905
705 1 976 977
706 1 977 978
707 1 1013 1014
708 1 1012 1013
709 1 1030 1031
710 1 1031 1032
711 1 922 923
712 1 1142 1143
713 1 1141 1142
714 1 349 350
715 1 79 80
716 1 992 993
717 1 1015 1016
718 1 1016 1017
719 1 991 992
720 1 1081 1082
721 1 853 854
722 1 854 855
723 1 901 902
724 1 902 903
725 1 962 963
726 1 961 962
727 1 133 134
728 1 1046 1047
729 1 1045 1046
730 1 1034 1035
731 1 1033 1034
732 1 1433 1434
733 1 779 780
734 1 778 779
735 1 589 590
736 1 590 591
737 1 583 584
738 1 584 585
739 1 1292 1293
740 1 790 791
741 1 791 792
742 1 1240 1241
743 1 1241 1242
744 1 350 351
745 1 100 101
746 1 1444 1445
747 1 889 890
748 1 1357 1358
749 1 1358 1359
750 1 1270 1271
751 1 1271 1272
752 1 1336 1337
753 1 1316 1317
754 1 1315 1316
755 1 841 842
756 1 26 27
757 1 25 26
758 1 815 816
759 1 1400 1401
760 1 1399 1400
761 1 662 663
762 1 661 662
763 1 430 431
764 1 431 432
765 1 1435 1436
766 1 571 572
767 1 1259 1260
768 1 1216 1217
769 1 1217 1218
770 1 752 753
771 1 1258 1259
772 1 1118 1119
773 1 835 836
774 1 785 786
775 1 917 918
776 1 1432 1433
777 1 389 390
778 1 388 389
779 1 721 722
780 1 722 723
781 1 61 62
782 1 62 63
783 1 1328 1329
784 1 1327 1328
785 1 814 815
786 1 1093 1094
787 1 1094 1095
788 1 1364 1365
789 1 1363 1364
790 1 1340 1341
791 1 1339 1340
792 1 1300 1301
793 1 1301 1302
794 1 1414 1415
795 1 1415 1416
796 1 1229 1230
797 1 751 752
798 1 1156 1157
799 1 1157 1158
800 1 1463 1464
801 1 916 917
802 1 1309 1310
803 1 1310 1311
804 1 1123 1124
805 1 784 785
806 1 1228 1229
807 1 1145 1146
808 1 1144 1145
809 1 1462 1463
810 1 1124 1125
811 1 497 498
812 1 496 497
813 1 1490 1491
814 1 1489 1490
815 1 1355 1356
816 1 1354 1355
817 1 443 444
818 1 442 443
819 1 527 528
820 1 526 527
821 1 842 843
822 1 404 405
823 1 403 404
824 1 4 5
825 1 5 6
826 1 521 522
827 1 520 521
828 1 587 588
829 1 586 587
830 1 416 417
831 1 415 416
832 1 508 509
833 1 745 746
834 1 509 510
835 1 746 747
836 1 544 545
837 1 545 546
838 1 172 173
839 1 173 174
840 1 1457 1458
841 1 1456 1457
842 1 1148 1149
843 1 1147 1148
844 1 1036 1037
845 1 1424 1425
846 1 1423 1424
847 1 1037 1038
848 1 1135 1136
849 1 1136 1137
850 1 1109 1110
851 1 1108 1109
852 1 1252 1253
853 1 1253 1254
854 1 1154 1155
855 1 1322 1323
856 1 1153 1154
857 1 1321 1322
858 1 436 437
859 1 437 438
860 1 1204 1205
861 1 313 314
862 1 1205 1206
863 1 314 315
864 1 181 182
865 1 182 183
866 1 773 774
867 1 1181 1182
868 1 1180 1181
869 1 1130 1131
870 1 1129 1130
871 1 1313 1314
872 1 1312 1313
873 1 104 105
874 1 103 104
875 1 593 594
876 1 592 593
877 1 743 744
878 1 742 743
879 1 1201 1202
880 1 1202 1203
881 1 1303 1304
882 1 1304 1305
883 1 1195 1196
884 1 557 558
885 1 556 557
886 1 1388 1389
887 1 1387 1388
888 1 1288 1289
889 1 1289 1290
890 1 68 69
891 1 67 68
892 1 1120 1121
893 1 1121 1122
894 1 1459 1460
895 1 1496 1497
896 1 1495 1496
897 1 1196 1197
898 1 109 110
899 1 110 111
900 1 1273 1274
901 1 674 675
902 1 673 674
903 1 1274 1275
904 1 709 710
905 1 710 711
906 1 1297 1298
907 1 983 984
908 1 982 983
909 1 1190 1191
910 1 1471 1472
911 1 1472 1473
912 1 1406 1407
913 1 1405 1406
914 1 1265 1266
915 1 1264 1265
916 1 1226 1227
917 1 1225 1226
918 1 772 773
919 1 1222 1223
920 1 1223 1224
921 1 1342 1343
922 1 1343 1344
923 1 1279 1280
924 1 1280 1281
925 1 836 837
926 1 88 89
927 1 1484 1485
928 1 1483 1484
929 1 1295 1296
930 1 1294 1295
931 1 797 798
932 1 796 797
933 1 1460 1461
934 1 1453 1454
935 1 1324 1325
936 1 1298 1299
937 1 352 353
938 1 353 354
939 1 1427 1428
940 1 1426 1427
941 1 1189 1190
942 1 550 551
943 1 551 552
944 1 1282 1283
945 1 1283 1284
946 1 1436 1437
947 1 1126 1127
948 1 1127 1128
949 1 1402 1403
950 1 1403 1404
951 1 250 251
952 1 251 252
953 1 1178 1179
954 1 1177 1178
955 1 1174 1175
956 1 1175 1176
957 1 439 440
958 1 440 441
959 1 679 680
960 1 680 681
961 1 1106 1107
962 1 1105 1106
963 1 1360 1361
964 1 1361 1362
965 1 821 822
966 1 539 540
967 1 538 539
968 1 1381 1382
969 1 1382 1383
970 1 1213 1214
971 1 1214 1215
972 1 1184 1185
973 1 1183 1184
974 1 1367 1368
975 1 1366 1367
976 1 1372 1373
977 1 1373 1374
978 1 697 698
979 1 698 699
980 1 820 821
981 1 572 573
982 1 376 377
983 1 890 891
984 1 1412 1413
985 1 1411 1412
986 1 892 893
987 1 893 894
988 1 1450 1451
989 1 1451 1452
990 1 1117 1118
991 1 1454 1455
992 1 1492 1493
993 1 1493 1494
994 1 1262 1263
995 1 1325 1326
996 1 1261 1262
997 1 308 309
998 1 307 308
999 1 1393 1394
1000 1 377 378

Angles

1 1 205 206 207
2 1 412 413 414
3 1 211 212 213
4 1 727 728 729
5 1 148 149 150
6 1 229 230 231
7 1 1069 1070 1071
8 1 295 296 297
9 1 64 65 66
10 1 424 425 426
11 1 1408 1409 1410
12 1 724 725 726
13 1 112 113 114
14 1 469 470 471
15 1 55 56 57
16 1 286 287 288
17 1 304 305 306
18 1 640 641 642
19 1 136 137 138
20 1 223 224 225
21 1 46 47 48
22 1 316 317 318
23 1 691 692 693
24 1 130 131 132
25 1 10 11 12
26 1 178 179 180
27 1 1096 1097 1098
28 1 775 776 777
29 1 1444 1445 1446
30 1 256 257 258
31 1 499 500 501
32 1 1051 1052 1053
33 1 1021 1022 1023
34 1 1186 1187 1188
35 1 106 107 108
36 1 898 899 900
37 1 448 449 450
38 1 220 221 222
39 1 394 395 396
40 1 253 254 255
41 1 271 272 273
42 1 145 146 147
43 1 85 86 87
44 1 685 686 687
45 1 334 335 336
46 1 367 368 369
47 1 364 365 366
48 1 397 398 399
49 1 244 245 246
50 1 118 119 120
51 1 214 215 216
52 1 1237 1238 1239
53 1 7 8 9
54 1 994 995 996
55 1 241 242 243
56 1 208 209 210
57 1 22 23 24
58 1 1165 1166 1167
59 1 505 506 507
60 1 298 299 300
61 1 58 59 60
62 1 91 92 93
63 1 52 53 54
64 1 655 656 657
65 1 328 329 330
66 1 34 35 36
67 1 259 260 261
68 1 340 341 342
69 1 283 284 285
70 1 49 50 51
71 1 874 875 876
72 1 82 83 84
73 1 1246 1247 1248
74 1 37 38 39
75 1 184 185 186
76 1 127 128 129
77 1 1114 1115 1116
78 1 247 248 249
79 1 385 386 387
80 1 883 884 885
81 1 232 233 234
82 1 1369 1370 1371
83 1 577 578 579
84 1 265 266 267
85 1 361 362 363
86 1 76 77 78
87 1 337 338 339
88 1 379 380 381
89 1 622 623 624
90 1 193 194 195
91 1 1210 1211 1212
92 1 739 740 741
93 1 358 359 360
94 1 292 293 294
95 1 1039 1040 1041
96 1 235 236 237
97 1 16 17 18
98 1 301 302 303
99 1 31 32 33
100 1 151 152 153
101 1 115 116 117
102 1 277 278 279
103 1 1486 1487 1488
104 1 268 269 270
105 1 238 239 240
106 1 688 689 690
107 1 541 542 543
108 1 355 356 357
109 1 28 29 30
110 1 325 326 327
111 1 190 191 192
112 1 1198 1199 1200
113 1 217 218 219
114 1 1480 1481 1482
115 1 865 866 867
116 1 202 203 204
117 1 997 998 999
118 1 856 857 858
119 1 343 344 345
120 1 160 161 162
121 1 169 170 171
122 1 1348 1349 1350
123 1 895 896 897
124 1 163 164 165
125 1 289 290 291
126 1 625 626 627
127 1 370 371 372
128 1 682 683 684
129 1 940 941 942
130 1 226 227 228
131 1 280 281 282
132 1 199 200 201
133 1 382 383 384
134 1 373 374 375
135 1 760 761 762
136 1 154 155 156
137 1 187 188 189
138 1 958 959 960
139 1 19 20 21
140 1 331 332 333
141 1 157 158 159
142 1 787 788 789
143 1 1474 1475 1476
144 1 445 446 447
145 1 523 524 525
146 1 478 479 480
147 1 634 635 636
148 1 1066 1067 1068
149 1 40 41 42
150 1 124 125 126
151 1 580 581 582
152 1 97 98 99
153 1 595 596 597
154 1 421 422 423
155 1 628 629 630
156 1 1378 1379 1380
157 1 517 518 519
158 1 1336 1337 1338
159 1 1330 1331 1332
160 1 733 734 735
161 1 925 926 927
162 1 664 665 666
163 1 502 503 504
164 1 799 800 801
165 1 604 605 606
166 1 631 632 633
167 1 511 512 513
168 1 568 569 570
169 1 433 434 435
170 1 427 428 429
171 1 409 410 411
172 1 754 755 756
173 1 1306 1307 1308
174 1 1132 1133 1134
175 1 1063 1064 1065
176 1 460 461 462
177 1 601 602 603
178 1 670 671 672
179 1 1393 1394 1395
180 1 1234 1235 1236
181 1 607 608 609
182 1 637 638 639
183 1 667 668 669
184 1 553 554 555
185 1 616 617 618
186 1 1441 1442 1443
187 1 706 707 708
188 1 493 494 495
189 1 676 677 678
190 1 475 476 477
191 1 730 731 732
192 1 712 713 714
193 1 1003 1004 1005
194 1 643 644 645
195 1 700 701 702
196 1 565 566 567
197 1 1351 1352 1353
198 1 400 401 402
199 1 1159 1160 1161
200 1 1498 1499 1500
201 1 529 530 531
202 1 646 647 648
203 1 463 464 465
204 1 1333 1334 1335
205 1 1417 1418 1419
206 1 949 950 951
207 1 562 563 564
208 1 781 782 783
209 1 418 419 420
210 1 598 599 600
211 1 1162 1163 1164
212 1 451 452 453
213 1 406 407 408
214 1 715 716 717
215 1 649 650 651
216 1 70 71 72
217 1 574 575 576
218 1 535 536 537
219 1 748 749 750
220 1 652 653 654
221 1 559 560 561
222 1 1276 1277 1278
223 1 484 485 486
224 1 514 515 516
225 1 613 614 615
226 1 487 488 489
227 1 142 143 144
228 1 466 467 468
229 1 610 611 612
230 1 472 473 474
231 1 736 737 738
232 1 1171 1172 1173
233 1 850 851 852
234 1 718 719 720
235 1 694 695 696
236 1 757 758 759
237 1 1384 1385 1386
238 1 88 89 90
239 1 763 764 765
240 1 547 548 549
241 1 619 620 621
242 1 532 533 534
243 1 1390 1391 1392
244 1 1249 1250 1251
245 1 1054 1055 1056
246 1 769 770 771
247 1 481 482 483
248 1 1168 1169 1170
249 1 319 320 321
250 1 310 311 312
251 1 811 812 813
252 1 1099 1100 1101
253 1 1255 1256 1257
254 1 871 872 873
255 1 1243 1244 1245
256 1 1024 1025 1026
257 1 1111 1112 1113
258 1 943 944 945
259 1 907 908 909
260 1 1465 1466 1467
261 1 868 869 870
262 1 805 806 807
263 1 829 830 831
264 1 100 101 102
265 1 1396 1397 1398
266 1 1138 1139 1140
267 1 1006 1007 1008
268 1 262 263 264
269 1 274 275 276
270 1 1192 1193 1194
271 1 391 392 393
272 1 955 956 957
273 1 196 197 198
274 1 1318 1319 1320
275 1 658 659 660
276 1 1285 1286 1287
277 1 913 914 915
278 1 703 704 705
279 1 1345 1346 1347
280 1 964 965 966
281 1 859 860 861
282 1 952 953 954
283 1 1375 1376 1377
284 1 970 971 972
285 1 766 767 768
286 1 817 818 819
287 1 1060 1061 1062
288 1 1102 1103 1104
289 1 73 74 75
290 1 832 833 834
291 1 880 881 882
292 1 1018 1019 1020
293 1 937 938 939
294 1 1207 1208 1209
295 1 322 323 324
296 1 979 980 981
297 1 946 947 948
298 1 1000 1001 1002
299 1 166 167 168
300 1 457 458 459
301 1 1042 1043 1044
302 1 1027 1028 1029
303 1 838 839 840
304 1 877 878 879
305 1 1429 1430 1431
306 1 1267 1268 1269
307 1 43 44 45
308 1 1468 1469 1470
309 1 13 14 15
310 1 967 968 969
311 1 808 809 810
312 1 1009 1010 1011
313 1 1057 1058 1059
314 1 847 848 849
315 1 1 2 3
316 1 1420 1421 1422
317 1 1078 1079 1080
318 1 985 986 987
319 1 1438 1439 1440
320 1 1231 1232 1233
321 1 1084 1085 1086
322 1 94 95 96
323 1 1072 1073 1074
324 1 826 827 828
325 1 844 845 846
326 1 823 824 825
327 1 910 911 912
328 1 1048 1049 1050
329 1 988 989 990
330 1 175 176 177
331 1 886 887 888
332 1 1150 1151 1152
333 1 934 935 936
334 1 1075 1076 1077
335 1 928 929 930
336 1 79 80 81
337 1 919 920 921
338 1 862 863 864
339 1 454 455 456
340 1 922 923 924
341 1 139 140 141
342 1 793 794 795
343 1 1090 1091 1092
344 1 1087 1088 1089
345 1 1477 1478 1479
346 1 490 491 492
347 1 1081 1082 1083
348 1 931 932 933
349 1 1447 1448 1449
350 1 802 803 804
351 1 133 134 135
352 1 346 347 348
353 1 1219 1220 1221
354 1 973 974 975
355 1 121 122 123
356 1 904 905 906
357 1 976 977 978
358 1 1012 1013 1014
359 1 1030 1031 1032
360 1 1141 1142 1143
361 1 991 992 993
362 1 1015 1016 1017
363 1 853 854 855
364 1 901 902 903
365 1 961 962 963
366 1 1045 1046 1047
367 1 1033 1034 1035
368 1 1432 1433 1434
369 1 778 779 780
370 1 589 590 591
371 1 583 584 585
372 1 1291 1292 1293
373 1 790 791 792
374 1 1240 1241 1242
375 1 349 350 351
376 1 1357 1358 1359
377 1 1270 1271 1272
378 1 1315 1316 1317
379 1 25 26 27
380 1 814 815 816
381 1 1399 1400 1401
382 1 661 662 663
383 1 430 431 432
384 1 1258 1259 1260
385 1 1216 1217 1218
386 1 751 752 753
387 1 1117 1118 1119
388 1 784 785 786
389 1 916 917 918
390 1 388 389 390
391 1 721 722 723
392 1 61 62 63
393 1 1327 1328 1329
394 1 1093 1094 1095
395 1 1363 1364 1365
396 1 1339 1340 1341
397 1 1300 1301 1302
398 1 1414 1415 1416
399 1 1228 1229 1230
400 1 1156 1157 1158
401 1 1462 1463 1464
402 1 1309 1310 1311
403 1 1144 1145 1146
404 1 1123 1124 1125
405 1 496 497 498
406 1 1489 1490 1491
407 1 1354 1355 1356
408 1 442 443 444
409 1 526 527 528
410 1 841 842 843
411 1 403 404 405
412 1 4 5 6
413 1 520 521 522
414 1 586 587 588
415 1 415 416 417
416 1 508 509 510
417 1 745 746 747
418 1 544 545 546
419 1 172 173 174
420 1 1456 1457 1458
421 1 1147 1148 1149
422 1 1423 1424 1425
423 1 1036 1037 1038
424 1 1135 1136 1137
425 1 1108 1109 1110
426 1 1252 1253 1254
427 1 1153 1154 1155
428 1 1321 1322 1323
429 1 436 437 438
430 1 1204 1205 1206
431 1 313 314 315
432 1 181 182 183
433 1 772 773 774
434 1 1180 1181 1182
435 1 1129 1130 1131
436 1 1312 1313 1314
437 1 103 104 105
438 1 592 593 594
439 1 742 743 744
440 1 1201 1202 1203
441 1 1303 1304 1305
442 1 556 557 558
443 1 1387 1388 1389
444 1 1288 1289 1290
445 1 67 68 69
446 1 1120 1121 1122
447 1 1495 1496 1497
448 1 1195 1196 1197
449 1 109 110 111
450 1 673 674 675
451 1 1273 1274 1275
452 1 709 710 711
453 1 982 983 984
454 1 1189 1190 1191
455 1 1471 1472 1473
456 1 1405 1406 1407
457 1 1264 1265 1266
458 1 1225 1226 1227
459 1 1222 1223 1224
460 1 1342 1343 1344
461 1 1279 1280 1281
462 1 835 836 837
463 1 1483 1484 1485
464 1 1294 1295 1296
465 1 796 797 798
466 1 1459 1460 1461
467 1 1297 1298 1299
468 1 352 353 354
469 1 1426 1427 1428
470 1 550 551 552
471 1 1282 1283 1284
472 1 1435 1436 1437
473 1 1126 1127 1128
474 1 1402 1403 1404
475 1 250 251 252
476 1 1177 1178 1179
477 1 1174 1175 1176
478 1 439 440 441
479 1 679 680 681
480 1 1105 1106 1107
481 1 1360 1361 1362
482 1 820 821 822
483 1 538 539 540
484 1 1381 1382 1383
485 1 1213 1214 1215
486 1 1183 1184 1185
487 1 1366 1367 1368
488 1 1372 1373 1374
489 1 697 698 699
490 1 571 572 573
491 1 889 890 891
492 1 1411 1412 1413
493 1 892 893 894
494 1 1450 1451 1452
495 1 1453 1454 1455
496 1 1492 1493 1494
497 1 1261 1262 1263
498 1 1324 1325 1326
499 1 307 308 309
500 1 376 377 378
