# LAMMPS Input File (License CC BY 4.0)

variable pressure equal press
fix myat1 all ave/time 100 5 500 v_pressure file pressure.dat

variable etotal equal etotal
fix myat2 all ave/time 100 5 500 v_etotal file etotal.dat

variable myfluid atom "type==2"
group myfluid dynamic all var myfluid
variable n_fluid equal count(myfluid)
fix myat3 all ave/time 100 5 500 v_n_fluid file number.dat

variable tfac equal 5.0/3.0
fix mygcmc all gcmc 10 1 0 0 ${seed} ${temp} ${mu} 0.01 mol co2mol full_energy tfac_insert ${tfac}

thermo 1000
dump mydmp all atom 1000 dump.lammpstrj
