LAMMPS data file via write_data, version 10 Sep 2025, timestep = 20000, units = real

36 atoms
2 atom types
24 bonds
1 bond types
12 angles
1 angle types

-20 20 xlo xhi
-20 20 ylo yhi
-20 20 zlo zhi

Masses

1 15.9994
2 12.011

Atoms # full

2223 741 1 -0.3256 7.38663683768154 -10.507539058375992 -12.948736605505095 0 0 0
2160 720 1 -0.3256 -3.686803330225228 -17.525581859238013 -5.330458489162153 0 0 0
2159 720 2 0.6512 -3.754179414247247 -16.493415253466654 -4.830165014057497 0 0 0
2158 720 1 -0.3256 -3.821555498269266 -15.461248647695298 -4.329871538952842 0 0 0
2208 736 1 -0.3256 12.09266609548152 -10.632723203389943 6.965157730717226 0 0 0
2207 736 2 0.6512 11.537401374214049 -10.895103584460497 5.994055972431809 0 0 0
2206 736 1 -0.3256 10.982136652946577 -11.15748396553105 5.0229542141463925 0 0 0
2133 711 1 -0.3256 -17.934569522165756 1.9761246457479802 -4.644716226148614 0 0 0
2132 711 2 0.6512 -16.876161227410734 2.3582509077891025 -4.87699278857419 0 0 0
2131 711 1 -0.3256 -15.81775293265571 2.740377169830225 -5.109269350999766 0 0 0
2184 728 1 -0.3256 -7.6358575676991185 9.62945871776465 -6.612168255918619 0 0 0
2220 740 1 -0.3256 11.825045970489857 -8.869187881600249 11.482453409653251 0 0 0
2183 728 2 0.6512 -8.598262308444017 9.005381981379067 -6.5450389620592055 0 0 0
2209 737 1 -0.3256 7.789818421017372 7.976190994017134 -0.009607279787445355 0 0 0
2210 737 2 0.6512 7.314105884783952 8.177605563857409 1.0167117514725348 0 0 0
2211 737 1 -0.3256 6.838393348550532 8.379020133697683 2.043030782732515 0 0 0
2193 731 1 -0.3256 17.0000580090482 15.024531099194649 13.686929247196 0 0 0
2192 731 2 0.6512 16.92716268679461 14.823276956949044 14.81581544262162 0 0 0
2191 731 1 -0.3256 16.85426736454102 14.62202281470344 15.94470163804724 0 0 0
2219 740 2 0.6512 12.879792988710008 -9.319238750878366 11.55431398728598 0 0 0
2218 740 1 -0.3256 13.93454000693016 -9.769289620156483 11.626174564918708 0 0 0
2182 728 1 -0.3256 -9.560667049188917 8.381305244993484 -6.477909668199792 0 0 0
2222 741 2 0.6512 7.265453928739511 -9.51581967506363 -12.38127879443638 0 0 0
2221 741 1 -0.3256 7.144271019797482 -8.52410029175127 -11.813820983367664 0 0 0
2181 727 1 -0.3256 -4.690328932591665 11.189809065893805 -7.301179803138409 0 0 0
2180 727 2 0.6512 -4.709298286917292 10.823691781062486 -6.212235682742779 0 0 0
2179 727 1 -0.3256 -4.728267641242919 10.457574496231167 -5.123291562347149 0 0 0
2217 739 1 -0.3256 -17.84455854876024 -7.8766056992212405 19.575882160793647 0 0 0
2216 739 2 0.6512 -17.843016403654133 -7.576696215000327 18.466714489491054 0 0 0
2215 739 1 -0.3256 -17.841474258548025 -7.276786730779413 17.35754681818846 0 0 0
2173 725 1 -0.3256 4.702374319592083 -11.365694203852671 0.1442427946885393 0 0 0
2174 725 2 0.6512 4.000050287693764 -11.15481473093611 1.028817156808831 0 0 0
2175 725 1 -0.3256 3.297726255795444 -10.943935258019549 1.9133915189291226 0 0 0
2176 726 1 -0.3256 2.566885747909205 15.5144813015162 -13.324913810879373 0 0 0
2177 726 2 0.6512 1.4288917283662101 15.383278650875802 -13.23571473045075 0 0 0
2178 726 1 -0.3256 0.29089770882321564 15.252076000235403 -13.146515650022128 0 0 0

Velocities

2223 -0.0009418125285698218 -0.00019785720705660928 0.0009690922543970853
2160 8.331730370792064e-05 -0.005641935060000936 -0.00022222144384378308
2159 8.331730370792064e-05 -0.005641935060000936 -0.00022222144384378308
2158 8.331730370792064e-05 -0.005641935060000936 -0.00022222144384378308
2208 -0.00023296008625078407 -0.0002554342578145612 -0.0017124656859453552
2207 -0.00023296008625078407 -0.0002554342578145612 -0.0017124656859453552
2206 -0.00023296008625078407 -0.0002554342578145612 -0.0017124656859453552
2133 -0.00013000894950839458 0.0009343245886633783 0.00014880883899373874
2132 -0.00013000894950839458 0.0009343245886633783 0.00014880883899373874
2131 -0.00013000894950839458 0.0009343245886633783 0.00014880883899373874
2184 0.0005061961742824096 0.001893354637091868 -0.0008386490757412942
2220 0.0012364760866304825 -0.0005165330763651822 0.0006821533611243253
2183 0.0005061961742824096 0.001893354637091868 -0.0008386490757412942
2209 -0.00020606054009819058 0.00020624956798810944 0.0005068833785789111
2210 -0.00020606054009819058 0.00020624956798810944 0.0005068833785789111
2211 -0.00020606054009819058 0.00020624956798810944 0.0005068833785789111
2193 0.0010049983141572538 0.0026442334997874616 0.0010961874545249797
2192 0.0010049983141572538 0.0026442334997874616 0.0010961874545249797
2191 0.0010049983141572538 0.0026442334997874616 0.0010961874545249797
2219 0.0012364760866304825 -0.0005165330763651822 0.0006821533611243253
2218 0.0012364760866304825 -0.0005165330763651822 0.0006821533611243253
2182 0.0005061961742824096 0.001893354637091868 -0.0008386490757412942
2222 -0.0009418125285698218 -0.00019785720705660928 0.0009690922543970853
2221 -0.0009418125285698218 -0.00019785720705660928 0.0009690922543970853
2181 0.001960978801419011 0.0035850150892630297 0.0013758872151897006
2180 0.001960978801419011 0.0035850150892630297 0.0013758872151897006
2179 0.001960978801419011 0.0035850150892630297 0.0013758872151897006
2217 0.00106320959551285 0.004577964908382576 -0.003457728291590934
2216 0.00106320959551285 0.004577964908382576 -0.003457728291590934
2215 0.00106320959551285 0.004577964908382576 -0.003457728291590934
2173 0.0022243744763878076 -0.0006670057216200284 0.0021145259027654916
2174 0.0022243744763878076 -0.0006670057216200284 0.0021145259027654916
2175 0.0022243744763878076 -0.0006670057216200284 0.0021145259027654916
2176 -0.0059437539201890825 -0.0011334880325389787 -0.0026199166338114034
2177 -0.0059437539201890825 -0.0011334880325389787 -0.0026199166338114034
2178 -0.0059437539201890825 -0.0011334880325389787 -0.0026199166338114034

Bonds

1 1 2159 2160
2 1 2158 2159
3 1 2207 2208
4 1 2206 2207
5 1 2132 2133
6 1 2131 2132
7 1 2183 2184
8 1 2209 2210
9 1 2210 2211
10 1 2192 2193
11 1 2191 2192
12 1 2219 2220
13 1 2218 2219
14 1 2182 2183
15 1 2222 2223
16 1 2221 2222
17 1 2180 2181
18 1 2179 2180
19 1 2216 2217
20 1 2215 2216
21 1 2173 2174
22 1 2174 2175
23 1 2176 2177
24 1 2177 2178

Angles

1 1 2158 2159 2160
2 1 2206 2207 2208
3 1 2131 2132 2133
4 1 2182 2183 2184
5 1 2209 2210 2211
6 1 2191 2192 2193
7 1 2218 2219 2220
8 1 2221 2222 2223
9 1 2179 2180 2181
10 1 2215 2216 2217
11 1 2173 2174 2175
12 1 2176 2177 2178
