LAMMPS data file via write_data, version 10 Sep 2025, timestep = 0, units = real

60 atoms
2 atom types
40 bonds
1 bond types
20 angles
1 angle types

-20 20 xlo xhi
-20 20 ylo yhi
-20 20 zlo zhi

Masses

1 15.9994
2 12.011

Atoms # full

58 20 1 -0.3256 -19.4666847289878 -16.581123354324244 -13.276985522064239 1 0 0
1 1 1 -0.3256 3.435781729713337 -14.730652990422396 -15.377500075325298 0 0 0
2 1 2 0.6512 2.6932036982351946 -15.325443761109115 -14.733292960903277 0 0 0
3 1 1 -0.3256 1.9506256667570523 -15.920234531795835 -14.089085846481257 0 0 0
47 16 2 0.6512 10.497108227804823 -15.102015284403235 -19.570884965160342 0 0 0
48 16 1 -0.3256 10.211064222828094 -15.491460105640856 -18.52842990213457 0 0 0
59 20 2 0.6512 19.42900953787798 -16.636696884705078 -12.964541238250463 0 0 0
60 20 1 -0.3256 18.324703804743763 -16.69227041508591 -12.652096954436688 0 0 0
25 9 1 -0.3256 11.647920457773763 -9.170591181362987 -18.843920662320663 0 0 0
26 9 2 0.6512 12.665625304293641 -8.835510736720408 -18.428952059908283 0 0 0
27 9 1 -0.3256 13.68333015081352 -8.50043029207783 -18.013983457495904 0 0 0
52 18 1 -0.3256 -7.817466571115458 2.320036655062977 -13.143757386173004 0 0 0
53 18 2 0.6512 -7.8822301830548 3.3573133979725256 -13.6337202757754 0 0 0
54 18 1 -0.3256 -7.946993794994142 4.394590140882074 -14.123683165377795 0 0 0
4 2 1 -0.3256 18.517589093732852 2.839545967695777 -18.78574775384765 0 0 0
5 2 2 0.6512 17.545206098605505 2.2788992627891247 -18.540090303188233 0 0 0
6 2 1 -0.3256 16.572823103478157 1.7182525578824723 -18.294432852528814 0 0 0
40 14 1 -0.3256 -15.091737136434505 -0.7324102298603439 -8.720380791211497 0 0 0
41 14 2 0.6512 -14.717784242107433 -1.7997570996171603 -8.51757326559982 0 0 0
42 14 1 -0.3256 -14.34383134778036 -2.867103969373977 -8.314765739988143 0 0 0
19 7 1 -0.3256 -5.943162403234528 -3.145207264474573 -7.589975071167146 0 0 0
20 7 2 0.6512 -6.3189780089626915 -3.0633966359605083 -6.507260588233946 0 0 0
21 7 1 -0.3256 -6.694793614690855 -2.9815860074464435 -5.424546105300745 0 0 0
31 11 1 -0.3256 4.766965095971394 -3.3944513736049147 -9.880893460485709 0 0 0
32 11 2 0.6512 5.007301543377018 -2.282960462515689 -9.716493501195913 0 0 0
33 11 1 -0.3256 5.247637990782642 -1.1714695514264633 -9.552093541906117 0 0 0
34 12 1 -0.3256 15.899074628914143 -1.711258804893148 -8.969674567582842 0 0 0
35 12 2 0.6512 14.893725400275422 -1.1571975709671136 -9.019575244290557 0 0 0
36 12 1 -0.3256 13.8883761716367 -0.6031363370410793 -9.069475920998272 0 0 0
55 19 1 -0.3256 19.163451885410993 -9.894533018390339 -1.0140657621379223 0 0 0
56 19 2 0.6512 18.063325042865856 -9.696004553556445 -0.7485316231607122 0 0 0
57 19 1 -0.3256 16.96319820032072 -9.497476088722552 -0.482997484183502 0 0 0
28 10 1 -0.3256 -15.362121877480016 17.024609681741246 -5.802821275246714 0 0 0
29 10 2 0.6512 -15.39727087849624 18.06834511368924 -5.323674224933457 0 0 0
30 10 1 -0.3256 -15.432419879512464 19.112080545637234 -4.8445271746202 0 0 0
7 3 1 -0.3256 -2.187714339786371 15.249020164828805 -4.1643282566107125 0 0 0
8 3 2 0.6512 -3.2977256846137912 15.124418695980879 -3.8949766493844677 0 0 0
9 3 1 -0.3256 -4.407737029441211 14.999817227132953 -3.625625042158223 0 0 0
43 15 1 -0.3256 6.256117169570379 10.631454107246544 -1.2590505181827025 0 0 0
44 15 2 0.6512 5.146125063833836 10.923947855329118 -1.208395483534968 0 0 0
45 15 1 -0.3256 4.0361329580972924 11.216441603411692 -1.1577404488872334 0 0 0
49 17 1 -0.3256 -7.3506632399892124 -4.13508499203842 3.5318896190834086 0 0 0
50 17 2 0.6512 -7.863609449874428 -3.6840240395087847 2.607967975832505 0 0 0
51 17 1 -0.3256 -8.376555659759642 -3.232963086979149 1.6840463325816013 0 0 0
22 8 1 -0.3256 -7.252555838560468 -15.912317181252861 12.067651202451355 0 0 0
23 8 2 0.6512 -7.528706447933198 -14.969270413261498 11.472164313994426 0 0 0
24 8 1 -0.3256 -7.804857057305927 -14.026223645270134 10.876677425537498 0 0 0
10 4 1 -0.3256 17.523965821872793 -18.079300452348505 16.260864523478837 0 0 0
11 4 2 0.6512 17.1274537952279 -18.884063604699477 15.542995815883856 0 0 0
12 4 1 -0.3256 16.73094176858301 -19.68882675705045 14.825127108288877 0 0 0
46 16 1 -0.3256 10.783152232781552 -14.712570463165614 19.386659971813884 0 0 -1
37 13 1 -0.3256 7.447833593851854 -3.3363494254231147 12.375252949891578 0 0 0
38 13 2 0.6512 7.998869208618473 -3.005210749341739 11.422935813396677 0 0 0
39 13 1 -0.3256 8.549904823385091 -2.674072073260363 10.470618676901776 0 0 0
13 5 1 -0.3256 -7.913270898431052 13.004899158233622 14.716587581226957 0 0 0
14 5 2 0.6512 -8.869322440060472 13.297749903657355 15.282630769201845 0 0 0
15 5 1 -0.3256 -9.825373981689891 13.590600649081088 15.848673957176732 0 0 0
16 6 1 -0.3256 16.107146964597053 12.255127806618065 12.703324786461122 0 0 0
17 6 2 0.6512 15.175337975460728 11.905353568450249 13.2774249432969 0 0 0
18 6 1 -0.3256 14.243528986324403 11.555579330282432 13.851525100132678 0 0 0

Velocities

58 0 0 0
1 0 0 0
2 0 0 0
3 0 0 0
47 0 0 0
48 0 0 0
59 0 0 0
60 0 0 0
25 0 0 0
26 0 0 0
27 0 0 0
52 0 0 0
53 0 0 0
54 0 0 0
4 0 0 0
5 0 0 0
6 0 0 0
40 0 0 0
41 0 0 0
42 0 0 0
19 0 0 0
20 0 0 0
21 0 0 0
31 0 0 0
32 0 0 0
33 0 0 0
34 0 0 0
35 0 0 0
36 0 0 0
55 0 0 0
56 0 0 0
57 0 0 0
28 0 0 0
29 0 0 0
30 0 0 0
7 0 0 0
8 0 0 0
9 0 0 0
43 0 0 0
44 0 0 0
45 0 0 0
49 0 0 0
50 0 0 0
51 0 0 0
22 0 0 0
23 0 0 0
24 0 0 0
10 0 0 0
11 0 0 0
12 0 0 0
46 0 0 0
37 0 0 0
38 0 0 0
39 0 0 0
13 0 0 0
14 0 0 0
15 0 0 0
16 0 0 0
17 0 0 0
18 0 0 0

Bonds

1 1 58 59
2 1 1 2
3 1 2 3
4 1 47 48
5 1 59 60
6 1 25 26
7 1 26 27
8 1 52 53
9 1 53 54
10 1 4 5
11 1 5 6
12 1 40 41
13 1 41 42
14 1 19 20
15 1 20 21
16 1 31 32
17 1 32 33
18 1 34 35
19 1 35 36
20 1 55 56
21 1 56 57
22 1 28 29
23 1 29 30
24 1 7 8
25 1 8 9
26 1 43 44
27 1 44 45
28 1 49 50
29 1 50 51
30 1 22 23
31 1 23 24
32 1 10 11
33 1 11 12
34 1 46 47
35 1 37 38
36 1 38 39
37 1 13 14
38 1 14 15
39 1 16 17
40 1 17 18

Angles

1 1 1 2 3
2 1 46 47 48
3 1 58 59 60
4 1 25 26 27
5 1 52 53 54
6 1 4 5 6
7 1 40 41 42
8 1 19 20 21
9 1 31 32 33
10 1 34 35 36
11 1 55 56 57
12 1 28 29 30
13 1 7 8 9
14 1 43 44 45
15 1 49 50 51
16 1 22 23 24
17 1 10 11 12
18 1 37 38 39
19 1 13 14 15
20 1 16 17 18
