 ! LAMMPS data file (atom_style full)
        1955  atoms
           2  atom types
           0  bonds
           0  bond types
           0  angles
           0  angle types
           0  dihedrals
           0  dihedral types
           0  impropers
           0  improper types

   -20.00000000     20.00000000 xlo xhi
   -20.00000000     20.00000000 ylo yhi
   -20.00000000     20.00000000 zlo zhi

 Masses

    1    39.962000
    2    39.962000

 Atoms

     1      1    1   0.00000000   13.8940023   -8.2281488  -10.7040392
     2      2    1   0.00000000   -2.4224356   -8.2832390   -7.0607470
     3      3    1   0.00000000   10.6506964    9.1352995    4.7736609
     4      4    1   0.00000000  -11.0826489    8.6403481  -16.4979611
     5      5    1   0.00000000   17.9299341    8.6927975  -18.8232666
     6      6    1   0.00000000   14.3799342   -7.8223152   14.4946113
     7      7    1   0.00000000   -2.5927616   -8.5205536   -1.3311127
     8      8    1   0.00000000    1.1479227    7.6148481  -13.7376810
     9      9    1   0.00000000  -16.5800291    8.3334339   17.4767232
    10     10    1   0.00000000    0.4789807    8.1468157  -18.4236197
    11     11    1   0.00000000   18.3419862   -7.4578357  -19.2525565
    12     12    1   0.00000000   -0.3587820   -8.8760340    2.2994130
    13     13    1   0.00000000   18.7582281   -8.4853079   -5.1479776
    14     14    1   0.00000000    2.6395469    8.2235247    1.2747310
    15     15    1   0.00000000  -12.3784306   -7.1617496  -17.4880742
    16     16    1   0.00000000    2.1943139   -8.2591816   -4.8951702
    17     17    1   0.00000000  -19.1770295   -8.7207282  -17.2254311
    18     18    1   0.00000000   19.4508061   -7.8072764    8.3697698
    19     19    1   0.00000000   18.3009006    8.4438083  -14.6652465
    20     20    1   0.00000000   -8.3386826   -7.4304561   14.6016782
    21     21    1   0.00000000   -0.4175124   -8.4438702  -18.9398136
    22     22    1   0.00000000   14.9272650    8.3115632    6.0704573
    23     23    1   0.00000000   11.5885523    8.0730155  -14.7315637
    24     24    1   0.00000000   -2.8824356    8.3380134   -3.5040137
    25     25    1   0.00000000    8.3959899    8.6918790  -18.4163447
    26     26    1   0.00000000   14.1916732   -8.7297381    0.1611335
    27     27    1   0.00000000  -16.6542945   -8.1705205   19.9195454
    28     28    1   0.00000000    8.5068582   -8.1919504   -8.0079501
    29     29    1   0.00000000   18.6202199   -8.3511190   -0.5990444
    30     30    1   0.00000000    5.5526241    7.8566677   -2.9163441
    31     31    1   0.00000000   18.8731593    7.8071761    2.2170694
    32     32    1   0.00000000   11.7520729   -8.5301984   -6.2937336
    33     33    1   0.00000000  -16.1451147   -7.4873868    8.0195447
    34     34    1   0.00000000  -15.9658359   -7.2396567  -16.7532747
    35     35    1   0.00000000  -14.0532147    8.3609747   12.6459703
    36     36    1   0.00000000   19.2007659   -8.3168843  -13.7598045
    37     37    1   0.00000000   -8.4602265    8.2726499   12.4995314
    38     38    1   0.00000000   13.0363157    7.6098443   13.7021839
    39     39    1   0.00000000   13.1093204   -8.3353665  -16.4438412
    40     40    1   0.00000000    4.5354713    7.8356757    8.0798578
    41     41    1   0.00000000   -9.1206226    7.5428112    8.9074945
    42     42    1   0.00000000   18.6287753    6.9870186    8.9115898
    43     43    1   0.00000000    8.6805203   -6.1246056   13.2585463
    44     44    2   0.00000000   15.5390519   14.6442427    3.0172821
    45     44    2   0.00000000   -8.6600394  -17.4084748   16.0480952
    46     44    2   0.00000000  -16.5344854  -10.5791291    3.2018553
    47     44    2   0.00000000   16.3362840  -11.0140343    6.5049837
    48     44    2   0.00000000    4.4337211   16.4127201   -9.1209245
    49     44    2   0.00000000   15.1368336  -18.8169783   -3.4675065
    50     44    2   0.00000000    3.7561440  -19.2073507  -18.9803808
    51     44    2   0.00000000   -6.0283700  -14.9257431   -6.5419540
    52     44    2   0.00000000    1.6538647  -13.4783851    7.7995654
    53     44    2   0.00000000    9.3609008   14.2716870  -10.7516303
    54     44    2   0.00000000   13.9077475   19.6833735    3.8593716
    55     44    2   0.00000000  -17.0456109  -17.3750960    8.1968081
    56     44    2   0.00000000   19.2116375  -14.5837791   16.3287659
    57     44    2   0.00000000   10.2774407  -19.0798896  -18.7954221
    58     44    2   0.00000000   15.9188041  -15.5601932   -7.2184901
    59     44    2   0.00000000  -10.5342857  -14.9601999   -1.9242305
    60     44    2   0.00000000    3.9276879  -12.7160498   -0.6950054
    61     44    2   0.00000000  -16.7911518   16.4428929  -19.0293082
    62     44    2   0.00000000   13.9266902   12.8183699   -5.0366771
    63     44    2   0.00000000  -14.7034390  -15.9604188    7.9201117
    64     44    2   0.00000000    0.4562275  -16.2591017   -4.6922020
    65     44    2   0.00000000    4.5782109  -13.6076976   16.6695541
    66     44    2   0.00000000  -19.7105838   15.2751093   12.5990187
    67     44    2   0.00000000  -15.4291851   13.5147697   14.4919209
    68     44    2   0.00000000  -10.3032288  -16.5857951   18.1641233
    69     44    2   0.00000000   -9.9187529  -19.2780156   18.1411578
    70     44    2   0.00000000  -12.5750799   14.5372700   14.7777552
    71     44    2   0.00000000  -15.8322139   13.9416303    0.7987978
    72     44    2   0.00000000   14.2886801   10.5721781    1.7328337
    73     44    2   0.00000000    8.1756565  -15.4880982    9.8823585
    74     44    2   0.00000000   13.6528152  -15.1342679   -2.5846625
    75     44    2   0.00000000    7.8829738   13.4062817   -0.0610987
    76     44    2   0.00000000   -9.8020735  -13.4970703   10.3239713
    77     44    2   0.00000000    3.2712527  -17.1128049   -8.4721312
    78     44    2   0.00000000   -9.0716412   19.1568661   16.0911306
    79     44    2   0.00000000  -15.5614748  -11.9872953    6.8119289
    80     44    2   0.00000000  -15.1209960  -12.2651461   19.9217443
    81     44    2   0.00000000   11.6692918   16.3801569   10.9122334
    82     44    2   0.00000000    6.6648508   11.3010164   16.4147197
    83     44    2   0.00000000  -14.4069734   15.9923259   19.4355188
    84     44    2   0.00000000    4.0368208  -11.2624294   -4.5035692
    85     44    2   0.00000000   13.5931592  -16.5717945  -16.9492940
    86     44    2   0.00000000    3.1879597   12.7789485   10.4347749
    87     44    2   0.00000000    3.8935578   12.5336342    3.2414311
    88     44    2   0.00000000  -12.4731948   17.1665405  -13.9566497
    89     44    2   0.00000000  -15.2004798   15.2815604   -9.7645248
    90     44    2   0.00000000    9.0803849   11.0277109    0.4790471
    91     44    2   0.00000000    0.6672528   10.6022682   -8.5757210
    92     44    2   0.00000000   17.8594836  -11.9186505  -13.7002574
    93     44    2   0.00000000    2.8450078   16.4726473   -2.2574574
    94     44    2   0.00000000    7.8059533  -13.9609134  -14.6013921
    95     44    2   0.00000000  -19.0690218   16.4504625    4.9995215
    96     44    2   0.00000000   -8.1556881  -10.5140514  -10.1090906
    97     44    2   0.00000000    7.1593952  -12.9202467   17.6829417
    98     44    2   0.00000000   -3.5145055   13.2084447   11.3845141
    99     44    2   0.00000000    2.6625983   16.6415719   19.0653703
   100     44    2   0.00000000   -9.8739629   13.1424121    5.5069892
   101     44    2   0.00000000   17.1481424   12.0184438  -19.9915106
   102     44    2   0.00000000  -18.8405556   18.2704331  -11.3426649
   103     44    2   0.00000000   -5.2633610   14.4948372   19.1336376
   104     44    2   0.00000000   -8.0129997   14.9669395   -7.7252225
   105     44    2   0.00000000   19.8780986  -12.2385444   17.7445363
   106     44    2   0.00000000    5.6382363  -14.4165281   19.2783224
   107     44    2   0.00000000   -1.1854132  -13.7728931   10.2875029
   108     44    2   0.00000000  -18.8263159   13.9522319   -8.2919889
   109     44    2   0.00000000  -14.6526313   15.8509206    5.9328374
   110     44    2   0.00000000   -4.7746749  -17.1417720   10.9456163
   111     44    2   0.00000000   15.7700853   16.3268468  -16.1101043
   112     44    2   0.00000000   11.7463952   18.6281683    2.4311817
   113     44    2   0.00000000   -5.3487588   16.3496151   14.6584678
   114     44    2   0.00000000   11.1037202   13.9853841   -8.7324064
   115     44    2   0.00000000    3.4040954  -10.0094109  -18.4097408
   116     44    2   0.00000000    5.9480719   18.1303214    1.8902722
   117     44    2   0.00000000  -14.1913061  -12.0686847    4.0786385
   118     44    2   0.00000000    7.3144044   14.6744386  -12.5481833
   119     44    2   0.00000000  -19.2470387  -11.5542833  -12.8258483
   120     44    2   0.00000000  -10.8357271   12.1718161  -17.0041221
   121     44    2   0.00000000   -9.9183766  -11.2844048    4.0046951
   122     44    2   0.00000000  -11.7759388   12.0830816    1.6549523
   123     44    2   0.00000000    9.0820644   19.2137858    4.2228325
   124     44    2   0.00000000  -12.8249193  -16.4791515   -1.7750145
   125     44    2   0.00000000    0.5479341   13.5178507  -12.1943153
   126     44    2   0.00000000   -5.0664474   16.2728725  -15.7123234
   127     44    2   0.00000000   -2.0100846   19.6541908  -11.2624052
   128     44    2   0.00000000    1.3402240  -16.3166602    2.6426955
   129     44    2   0.00000000   -4.2532605  -14.4195097  -18.2902455
   130     44    2   0.00000000  -13.1932750  -12.3807354   16.0678347
   131     44    2   0.00000000  -18.5814401  -15.8406878  -15.1769589
   132     44    2   0.00000000  -10.1351400  -18.6244310    2.5816592
   133     44    2   0.00000000   -2.0922816  -17.1254148   -9.1159991
   134     44    2   0.00000000   -7.9197648  -14.7318814    8.1149448
   135     44    2   0.00000000    6.0860818   14.3007587   -7.9928690
   136     44    2   0.00000000    3.9521540  -17.1190207    1.1875445
   137     44    2   0.00000000    7.8031639   14.0033910   11.7836635
   138     44    2   0.00000000  -18.0385464  -12.2287674   13.4615380
   139     44    2   0.00000000   -2.5701284   18.1523392   13.0449760
   140     44    2   0.00000000  -15.7234134  -17.9937502    1.2095176
   141     44    2   0.00000000  -10.1900380   18.7608681   13.4984688
   142     44    2   0.00000000    6.8764444  -12.9452456   -4.1705268
   143     44    2   0.00000000   15.5992322  -19.0998491   17.6929421
   144     44    2   0.00000000   -2.7463269  -10.4786330   12.9128310
   145     44    2   0.00000000  -14.1272208  -11.1474082    8.9596265
   146     44    2   0.00000000  -10.8306362  -10.3465026  -14.1726593
   147     44    2   0.00000000    3.7663343   18.3346770    9.9169427
   148     44    2   0.00000000   12.6681517  -19.1483917  -16.6904552
   149     44    2   0.00000000  -17.3494970   15.6363848   14.1311677
   150     44    2   0.00000000    9.9778570  -17.5349349  -11.7919310
   151     44    2   0.00000000    1.3432921   14.3322569    9.1136822
   152     44    2   0.00000000  -10.8955525  -14.7822773    8.1878170
   153     44    2   0.00000000    2.0612366  -17.7574516   10.3825788
   154     44    2   0.00000000  -15.3219051   12.5103436   10.0974146
   155     44    2   0.00000000   16.3019893  -14.5343092   16.1075445
   156     44    2   0.00000000   -2.2430710  -17.6877310   12.2467570
   157     44    2   0.00000000   15.2553916  -18.7053213  -17.4032815
   158     44    2   0.00000000    7.8396636  -19.8202008    1.8110429
   159     44    2   0.00000000  -10.4345415  -18.8320065   12.2810782
   160     44    2   0.00000000   -4.0047093  -10.0397143   15.2683678
   161     44    2   0.00000000  -15.6321332  -19.9264105   -8.2206139
   162     44    2   0.00000000   12.2875941   10.4337131   17.7972043
   163     44    2   0.00000000  -13.3633286  -14.4672935    3.0369246
   164     44    2   0.00000000    3.6360566   10.1008172  -13.2282093
   165     44    2   0.00000000    9.7729320  -18.8861804    6.2502519
   166     44    2   0.00000000    8.0310483  -18.0999338  -16.9527563
   167     44    2   0.00000000  -19.3199318   10.1157385    0.4737032
   168     44    2   0.00000000    6.0456878  -16.3901973   -8.1840238
   169     44    2   0.00000000  -13.4437918   10.4456478   18.2088467
   170     44    2   0.00000000    7.8501906   15.4490830    9.4583730
   171     44    2   0.00000000   -6.5187487   16.8400554   19.9250405
   172     44    2   0.00000000    8.6957488  -12.3622833  -16.8245991
   173     44    2   0.00000000   -5.8485634  -18.7928207   12.7831775
   174     44    2   0.00000000  -17.9518948  -17.9087054    3.2001728
   175     44    2   0.00000000   -7.5988673  -15.7961832   18.0177572
   176     44    2   0.00000000    8.6973305  -12.6274040    1.3306968
   177     44    2   0.00000000   -1.1073771  -11.6179329   -1.0616586
   178     44    2   0.00000000   -4.7999244   17.7568251  -12.9359552
   179     44    2   0.00000000    9.1813892   15.8452993   -0.2836393
   180     44    2   0.00000000  -19.3373970   13.9412238  -15.6689274
   181     44    2   0.00000000  -10.2235037   18.0923156   10.8564229
   182     44    2   0.00000000  -11.1086336  -11.0403738   17.6323900
   183     44    2   0.00000000   15.5862999   17.3115088   -0.5757474
   184     44    2   0.00000000   17.3385860   18.0289776  -14.4997601
   185     44    2   0.00000000   15.8390405   19.3224651   10.6001642
   186     44    2   0.00000000   16.9536011  -15.0319851  -10.8119427
   187     44    2   0.00000000   15.6852011  -11.2106533    2.4531483
   188     44    2   0.00000000    3.6970259  -11.0009139  -12.8804621
   189     44    2   0.00000000   17.2359425  -11.1299091   13.4600511
   190     44    2   0.00000000  -14.7403079  -15.2938431    0.6327534
   191     44    2   0.00000000   -4.8829967   13.7792740    4.1857590
   192     44    2   0.00000000  -11.8304577  -12.2822658    2.2221422
   193     44    2   0.00000000  -15.0703097  -16.7509917   13.4085096
   194     44    2   0.00000000   -2.0026913  -19.2810205   16.5526027
   195     44    2   0.00000000   14.0410001   14.0914293   15.1405622
   196     44    2   0.00000000    9.7137318  -14.8418369   12.1921843
   197     44    2   0.00000000  -18.6001894   13.1181460  -13.1283376
   198     44    2   0.00000000   -8.7247353   14.8647993  -12.9979131
   199     44    2   0.00000000   -6.5884106   10.5453094    1.5949023
   200     44    2   0.00000000  -19.1122799  -12.5818307   -0.7798218
   201     44    2   0.00000000    1.0713858   10.2719333   -1.1207546
   202     44    2   0.00000000  -10.6186575  -16.1251346   -6.0669058
   203     44    2   0.00000000   12.5539614   12.4599601   -1.1192348
   204     44    2   0.00000000   -4.9815307  -14.5974671  -15.5278553
   205     44    2   0.00000000    0.8187614   13.3404002    4.1535675
   206     44    2   0.00000000  -17.6430842  -12.3266614   18.9043355
   207     44    2   0.00000000    7.7501274   19.8666309   -3.4237927
   208     44    2   0.00000000   13.6934832  -10.0928740    6.4767193
   209     44    2   0.00000000   -9.8550402   12.7302373   -6.8822926
   210     44    2   0.00000000   -6.8329332  -10.8589884   -3.9899232
   211     44    2   0.00000000   -0.0422935  -18.3080722  -10.6824725
   212     44    2   0.00000000  -16.1560435   13.5967509   -7.7761688
   213     44    2   0.00000000   -0.5692565   16.5398178    8.2897505
   214     44    2   0.00000000   -6.3656157   12.0016604    6.2226636
   215     44    2   0.00000000   -7.9564236  -16.8924070   -6.9845115
   216     44    2   0.00000000   17.8118559   12.2748990  -17.1442250
   217     44    2   0.00000000   18.9664273  -12.6513182   -5.5249005
   218     44    2   0.00000000    5.7249394  -16.8424469    5.0952388
   219     44    2   0.00000000  -18.0962920  -16.3340607  -10.1785964
   220     44    2   0.00000000    8.6900393  -17.0123098    0.9373061
   221     44    2   0.00000000    2.7351471  -18.4659151  -10.8549612
   222     44    2   0.00000000  -17.1221749   15.7518129   -6.5266831
   223     44    2   0.00000000   18.4243423  -14.6608827   -7.3330979
   224     44    2   0.00000000  -16.1230709  -15.5113614   15.6337107
   225     44    2   0.00000000  -16.5339081  -11.0630661  -13.1055057
   226     44    2   0.00000000  -19.0181559   13.6723006    6.4782254
   227     44    2   0.00000000   -2.3523949   18.3302389   17.9294947
   228     44    2   0.00000000   -2.7767327   11.4157426    2.4810257
   229     44    2   0.00000000   12.8925486   18.2544951   -0.2262508
   230     44    2   0.00000000    2.4982764  -15.4400170    5.5078722
   231     44    2   0.00000000  -17.7564612   10.9232831  -19.5220680
   232     44    2   0.00000000  -17.4246819   10.9912576   15.2173193
   233     44    2   0.00000000   11.3171342   16.2322969    1.3210351
   234     44    2   0.00000000  -19.7162143  -15.5802257  -12.4279171
   235     44    2   0.00000000   -1.8730201   10.1248853    7.0175472
   236     44    2   0.00000000   17.4743156  -12.2299025    8.7225353
   237     44    2   0.00000000   -8.6513508  -14.8514009  -15.5157281
   238     44    2   0.00000000   11.1551669  -19.4272634   -7.7446428
   239     44    2   0.00000000   -0.0482105  -14.2450340   15.6350187
   240     44    2   0.00000000    7.2325826   11.8717970    2.4327171
   241     44    2   0.00000000  -14.7272941   11.0180983   15.6572146
   242     44    2   0.00000000   -5.8538277   19.6978805   19.7147229
   243     44    2   0.00000000   -6.7899477   16.6328809  -11.4388591
   244     44    2   0.00000000  -14.2830976  -17.0728059    5.5345415
   245     44    2   0.00000000  -13.1338185  -11.6985195   -7.9693700
   246     44    2   0.00000000  -12.8948859  -15.6795777    9.9880413
   247     44    2   0.00000000   15.2737650   13.3961412  -12.1140649
   248     44    2   0.00000000  -18.2487188  -15.0309600    3.2320057
   249     44    2   0.00000000  -15.5425454  -16.4665646   10.4993069
   250     44    2   0.00000000   11.1636924  -10.3340728   19.7092917
   251     44    2   0.00000000  -10.4236507  -13.9852156   17.4341140
   252     44    2   0.00000000    4.2161321  -10.6897930    6.9701261
   253     44    2   0.00000000    8.3648226  -10.2078020    2.9463046
   254     44    2   0.00000000    6.0971504  -11.7169578  -11.4938302
   255     44    2   0.00000000   -7.8554057   11.3315449   10.1444475
   256     44    2   0.00000000   10.6220357  -14.9378993   17.1053172
   257     44    2   0.00000000    2.7598066  -16.8093060  -17.0448584
   258     44    2   0.00000000   11.1130541   19.2034220   19.2582612
   259     44    2   0.00000000    7.3660791   16.7524973   -7.1223970
   260     44    2   0.00000000    2.3951744   13.7627914  -17.9668501
   261     44    2   0.00000000    5.9189541  -13.8780872    9.6277379
   262     44    2   0.00000000    7.2432094  -19.5388357  -11.6840333
   263     44    2   0.00000000    3.8313627  -16.5904526   -3.6259925
   264     44    2   0.00000000   15.9858423   18.2985672  -12.0536763
   265     44    2   0.00000000   -7.7919764   12.4886015   19.6058454
   266     44    2   0.00000000   18.3596678  -19.8872832   10.0276283
   267     44    2   0.00000000   11.1479306   11.9855630  -10.8578153
   268     44    2   0.00000000  -11.0819546   10.9608810   -0.7825410
   269     44    2   0.00000000    1.4831168  -17.0983028   14.7909379
   270     44    2   0.00000000   -5.2473537   14.0105998   -7.6480841
   271     44    2   0.00000000  -17.9536098  -10.5349783   -8.5893586
   272     44    2   0.00000000    3.1367424  -11.0469933   11.9307452
   273     44    2   0.00000000   -1.9795637   19.0927127   -5.2167559
   274     44    2   0.00000000    6.1179816  -18.1409258   -2.6313495
   275     44    2   0.00000000  -13.8883874   14.5935642   12.3161591
   276     44    2   0.00000000    5.7781587   17.9034707  -11.4077592
   277     44    2   0.00000000    1.2936094  -17.3220511  -12.7984097
   278     44    2   0.00000000   11.5372599   16.3138171   18.2081104
   279     44    2   0.00000000   -9.8297338   11.0088254   15.5206522
   280     44    2   0.00000000   11.0082779  -14.0658412    1.9016090
   281     44    2   0.00000000   12.5262514  -14.8313795  -10.1200113
   282     44    2   0.00000000   -3.6997166   10.4101521   -0.0166911
   283     44    2   0.00000000   18.4543272   14.1703597   -5.9062773
   284     44    2   0.00000000   11.2483461   18.4721036   -9.5621654
   285     44    2   0.00000000   -3.2108031  -14.3432159   -6.9697683
   286     44    2   0.00000000   16.2925031   18.6828932   13.2670750
   287     44    2   0.00000000   -6.1880646   14.6050119   16.6580881
   288     44    2   0.00000000   -1.1576155  -11.2764869  -15.6330823
   289     44    2   0.00000000   12.5453458   10.5606766   -5.5657071
   290     44    2   0.00000000    7.4667390   15.7785553   13.8183145
   291     44    2   0.00000000    1.0650538   14.7733739  -15.8348216
   292     44    2   0.00000000   -3.5709467  -10.0808198  -16.1546682
   293     44    2   0.00000000  -11.5356752   12.5788372    7.6451995
   294     44    2   0.00000000  -18.9893427   17.1165420   -2.1872058
   295     44    2   0.00000000  -14.4572721  -18.6950195   11.7108252
   296     44    2   0.00000000   12.4551739   13.6017916  -12.6616334
   297     44    2   0.00000000   -5.9769299   13.9476047   10.2622713
   298     44    2   0.00000000   -9.9347071  -12.6329142   19.6715153
   299     44    2   0.00000000  -17.3943055   13.8238527  -10.6773341
   300     44    2   0.00000000   -3.1328054   11.7131090   13.6711496
   301     44    2   0.00000000  -19.0087901   10.7568368  -11.5606968
   302     44    2   0.00000000   -5.4532231   16.2551122    3.1776422
   303     44    2   0.00000000   -0.9228737   14.0000751   16.0083743
   304     44    2   0.00000000  -13.5342671   16.8228294  -11.3062802
   305     44    2   0.00000000  -17.6456690  -16.4943480  -17.7016585
   306     44    2   0.00000000   -5.7703907  -12.6039743    7.9910257
   307     44    2   0.00000000    1.1599672   18.7387944    6.5728022
   308     44    2   0.00000000  -19.4259328   18.9351589  -16.0626995
   309     44    2   0.00000000    0.5028734  -17.2617972   -8.2134224
   310     44    2   0.00000000   14.3064002   10.2685111  -18.3773858
   311     44    2   0.00000000    9.8951299   12.0884625   16.7183634
   312     44    2   0.00000000   -2.2678695  -17.8265515  -15.6482166
   313     44    2   0.00000000  -14.6084124  -12.8796976  -17.5518631
   314     44    2   0.00000000   -6.1176749  -10.4746459    9.7365283
   315     44    2   0.00000000   19.8553452  -14.1718244    1.2565773
   316     44    2   0.00000000   -3.0056985   17.5907072  -17.3812308
   317     44    2   0.00000000   -7.3148423   14.6616222  -18.7408914
   318     44    2   0.00000000    0.8250431  -18.3852600  -15.4743516
   319     44    2   0.00000000   -5.0101432  -14.3422124   18.4784595
   320     44    2   0.00000000   10.0201095   17.9471649  -14.7870184
   321     44    2   0.00000000    3.6095842  -12.1469780   14.4776229
   322     44    2   0.00000000    6.4049931   11.2413600   -0.9275439
   323     44    2   0.00000000   19.7226439   18.8743736   19.3274548
   324     44    2   0.00000000  -13.5080647  -11.2929310  -10.7914753
   325     44    2   0.00000000  -11.8766894   19.5958619    4.1716728
   326     44    2   0.00000000   16.6645505  -17.3836007  -15.2138867
   327     44    2   0.00000000  -15.1505119  -18.3292081   -6.0387395
   328     44    2   0.00000000  -16.8283860  -19.8750510   12.5549257
   329     44    2   0.00000000    2.0956595  -18.1091452   19.0911522
   330     44    2   0.00000000   -5.8520885   18.5131359    7.2012674
   331     44    2   0.00000000    7.3826414   18.4756575  -13.5658934
   332     44    2   0.00000000  -12.8448875   16.9218661    3.8228505
   333     44    2   0.00000000   -9.1941404   17.9181782  -12.3341935
   334     44    2   0.00000000  -17.8157669   11.4486440   -9.0618304
   335     44    2   0.00000000    2.1814387  -19.3629564    1.5671259
   336     44    2   0.00000000    0.4814592  -18.1657317   12.5067688
   337     44    2   0.00000000    7.5574391   14.5424580   -2.5829007
   338     44    2   0.00000000   -5.2944647   10.1201315   14.2960427
   339     44    2   0.00000000    2.2558193   12.3688540    7.2109257
   340     44    2   0.00000000   15.8486217  -12.8045418   10.8389180
   341     44    2   0.00000000   18.5096809  -13.2104508   11.1741397
   342     44    2   0.00000000   11.5598731   15.7911116  -11.0879612
   343     44    2   0.00000000    5.6246141   11.0282357  -19.9479327
   344     44    2   0.00000000   14.8146991   13.0426647  -19.1097319
   345     44    2   0.00000000   11.2904536  -19.1512900    8.7802950
   346     44    2   0.00000000   -1.4171785   15.9997352  -18.9186534
   347     44    2   0.00000000  -10.2022434   13.6517577  -19.8670026
   348     44    2   0.00000000   -4.6179791   15.3164639  -18.2272160
   349     44    2   0.00000000   -0.8486514   19.7525771   11.1875048
   350     44    2   0.00000000   10.0588481   10.9218830   19.0947144
   351     44    2   0.00000000   15.5922846   10.3740155  -15.7569920
   352     44    2   0.00000000   -0.7569244  -12.0540137    8.1091953
   353     44    2   0.00000000   -4.1879617  -16.6072538   -5.3373319
   354     44    2   0.00000000  -17.4062325  -14.5368620    0.5759248
   355     44    2   0.00000000  -18.6824139   11.4171068   -4.1626654
   356     44    2   0.00000000    7.3019435   16.7684699    4.0900208
   357     44    2   0.00000000  -17.3755084  -10.0024842   16.8785604
   358     44    2   0.00000000    5.4343972   16.4453872  -13.7417142
   359     44    2   0.00000000   -8.0294304   12.4759719  -17.4512260
   360     44    2   0.00000000  -10.9628999  -15.2768595  -11.4270872
   361     44    2   0.00000000   -3.7699928   15.8550476   16.8221870
   362     44    2   0.00000000   -2.0139103   13.8683864   -2.5914464
   363     44    2   0.00000000   12.4613485  -14.9600426   11.7519874
   364     44    2   0.00000000   -5.3710230  -12.6184986    2.4949854
   365     44    2   0.00000000  -17.7583142   18.2777885   -7.5531637
   366     44    2   0.00000000    2.9702815  -19.4149991    8.3036548
   367     44    2   0.00000000   -6.0553179   14.5835790  -13.2863882
   368     44    2   0.00000000   16.2139462  -13.5294940   -2.3164802
   369     44    2   0.00000000   18.9098911   18.2659414    5.2449518
   370     44    2   0.00000000   -9.3525397  -18.9627837  -17.3911722
   371     44    2   0.00000000   -2.9740846   18.8713770   -2.6879424
   372     44    2   0.00000000    6.9365946   18.2955288   18.9013530
   373     44    2   0.00000000  -16.3220049  -19.9912467    7.1813084
   374     44    2   0.00000000    7.8845053   12.4316339    9.4070431
   375     44    2   0.00000000   15.0174005   15.3090086   -4.6026057
   376     44    2   0.00000000    3.0076732  -14.4611250   18.9996256
   377     44    2   0.00000000    5.6468955   11.0437882  -15.0934811
   378     44    2   0.00000000  -13.1115635  -12.4190215   -5.0993951
   379     44    2   0.00000000   14.1552335  -11.2324840   -6.2250015
   380     44    2   0.00000000   16.7598167   16.7550504   10.9510132
   381     44    2   0.00000000   -2.0721901  -15.2195512   -4.0339501
   382     44    2   0.00000000  -17.3968272  -16.9006609  -12.9073677
   383     44    2   0.00000000   -7.2473900   12.6540661   -6.3819314
   384     44    2   0.00000000    1.0485080  -19.4262126   -0.8578345
   385     44    2   0.00000000  -17.7466914  -15.4365024   -3.6466685
   386     44    2   0.00000000   -6.0443180   10.3643356   -3.6304961
   387     44    2   0.00000000    7.8555901   12.4553014   19.3417663
   388     44    2   0.00000000   16.4306163   12.8735903   15.2120369
   389     44    2   0.00000000    1.2127742  -11.0557225  -17.1482396
   390     44    2   0.00000000    3.4832565  -10.4125963    3.7172735
   391     44    2   0.00000000   -1.5901507  -11.0499930   10.5467516
   392     44    2   0.00000000   -1.3561980   19.1947887    8.1793885
   393     44    2   0.00000000   -3.1745203   19.9892992  -13.9462979
   394     44    2   0.00000000    0.6751455   16.7003618   10.7891405
   395     44    2   0.00000000   15.6150871   14.4829342    0.1583180
   396     44    2   0.00000000  -14.0372138  -17.1860174   16.0506652
   397     44    2   0.00000000    0.5270239   12.5382945   -3.5855019
   398     44    2   0.00000000   18.4050731   15.9177341    3.6919884
   399     44    2   0.00000000   -3.1666324  -12.1125303   -2.8234781
   400     44    2   0.00000000  -17.8447986   18.2270376  -13.8794043
   401     44    2   0.00000000   18.1194019  -18.7183561   19.4257509
   402     44    2   0.00000000    0.5564565   16.6251391  -11.7139377
   403     44    2   0.00000000   -2.3668641  -13.9586074   17.2695012
   404     44    2   0.00000000   -0.7093275   10.9296791    0.8161675
   405     44    2   0.00000000   14.9175644   14.7365526   10.3029975
   406     44    2   0.00000000  -17.0289385   14.7636577    4.8964397
   407     44    2   0.00000000  -11.6015967  -18.8493832  -10.3504584
   408     44    2   0.00000000   -5.6249514  -15.1063159   15.7443810
   409     44    2   0.00000000   -9.4979750  -13.2926638    6.2616773
   410     44    2   0.00000000   -9.0010112   15.4659493  -10.3534162
   411     44    2   0.00000000    4.7370384   15.8688235    3.1183640
   412     44    2   0.00000000    4.3451841  -15.1298203    3.3874964
   413     44    2   0.00000000  -10.8066277   19.2354781  -14.8351473
   414     44    2   0.00000000   -6.9656217  -14.0106866  -17.5013671
   415     44    2   0.00000000   16.2820460   18.5724975   -2.8223748
   416     44    2   0.00000000    1.4831170  -10.6229999   -0.7995050
   417     44    2   0.00000000    9.7605104   15.4422677   16.1559720
   418     44    2   0.00000000   -2.4830680   14.9487097  -16.3573524
   419     44    2   0.00000000  -18.4739560   18.5725978  -18.5953477
   420     44    2   0.00000000   -9.0048118   11.8001525    1.1415456
   421     44    2   0.00000000  -18.2791335  -17.1352239    0.5444735
   422     44    2   0.00000000   -0.7682477  -18.9578785  -13.3486181
   423     44    2   0.00000000    7.9444206   19.1943191  -16.0964037
   424     44    2   0.00000000    8.5625872   14.6907218    2.3052151
   425     44    2   0.00000000    1.6822933   13.5699911   17.2628953
   426     44    2   0.00000000   -2.6971937  -16.5852933  -18.1022387
   427     44    2   0.00000000   16.5921312   17.3709774    6.4097717
   428     44    2   0.00000000   10.4513252   11.3960222   10.0770567
   429     44    2   0.00000000   -0.5178844  -16.5735594   10.3383782
   430     44    2   0.00000000    4.7453056   16.0031552   -6.3472127
   431     44    2   0.00000000  -15.4964784  -13.5918369   -4.4891950
   432     44    2   0.00000000   11.1254818  -10.3740897   -2.7563214
   433     44    2   0.00000000    8.9141709  -14.3423957   -3.1434036
   434     44    2   0.00000000    6.6607937  -10.0973522   -4.7275911
   435     44    2   0.00000000  -10.5661162   19.2523474  -19.6600123
   436     44    2   0.00000000   16.5596118  -11.6815068   -4.5074546
   437     44    2   0.00000000   15.8175056  -18.2482314   -7.2012581
   438     44    2   0.00000000    7.8177046   18.1485978    8.9460096
   439     44    2   0.00000000    9.7227317  -12.2785571   18.3326396
   440     44    2   0.00000000   19.0841834   11.3514428    9.2691777
   441     44    2   0.00000000  -11.2274010   13.8258847   12.2882766
   442     44    2   0.00000000   -5.2833702   18.3355671   -0.9345127
   443     44    2   0.00000000   -3.4563171   15.1890696    9.4606351
   444     44    2   0.00000000   17.8544038  -11.2303059    4.1387778
   445     44    2   0.00000000   -0.7336546  -15.0964305    7.9340034
   446     44    2   0.00000000    9.5310505   14.1393700  -16.4669068
   447     44    2   0.00000000  -13.0022752  -10.1096614   19.5821389
   448     44    2   0.00000000   10.7490936  -14.8537344  -12.4515108
   449     44    2   0.00000000  -10.5869514   17.9984354   -0.1978587
   450     44    2   0.00000000   -0.9634713   13.1845013   12.9906914
   451     44    2   0.00000000   -7.6533960   13.6412316   -0.5033101
   452     44    2   0.00000000  -10.2686376  -17.8681337   -8.1657908
   453     44    2   0.00000000   15.3540232  -12.6719509   18.2259363
   454     44    2   0.00000000    8.2436706  -19.3184001   18.6693613
   455     44    2   0.00000000  -19.7307263   18.7617658   16.6754090
   456     44    2   0.00000000    1.8292518  -11.7447841    5.5450469
   457     44    2   0.00000000   -9.2546137   15.2565492   -2.1433927
   458     44    2   0.00000000   19.1123333  -17.6966895   -0.3794050
   459     44    2   0.00000000   10.2093046   13.9707706   -2.0043196
   460     44    2   0.00000000   18.9325094   11.0101368   -9.3603166
   461     44    2   0.00000000  -15.2727308   10.1720743   -1.2450283
   462     44    2   0.00000000    8.3357991   11.3001727   11.9841701
   463     44    2   0.00000000   -9.4668757   18.7220487    5.3753314
   464     44    2   0.00000000  -16.3118662  -15.8347693   -6.0972837
   465     44    2   0.00000000    8.2946830  -11.3274665  -14.2741729
   466     44    2   0.00000000   -7.8310414   14.5287234  -15.5569902
   467     44    2   0.00000000    7.9972812  -17.6462352   11.6179056
   468     44    2   0.00000000  -10.4502295   13.9938416    0.2138918
   469     44    2   0.00000000    2.4011203   16.8537950    4.9329302
   470     44    2   0.00000000   15.1339669  -17.6916985  -19.9957333
   471     44    2   0.00000000   16.0381692  -17.9009888   10.5826349
   472     44    2   0.00000000   12.3800621   19.3294724  -14.4567149
   473     44    2   0.00000000   14.1863736  -14.8892348   14.0627017
   474     44    2   0.00000000    8.4834090   17.0843061   -2.5751334
   475     44    2   0.00000000    6.7330732  -14.4627503  -10.2813226
   476     44    2   0.00000000   -1.1274710  -14.3984444  -18.5557454
   477     44    2   0.00000000  -18.3992717  -18.9888606  -14.4788365
   478     44    2   0.00000000  -16.5009625   16.4913296  -12.0744105
   479     44    2   0.00000000   -4.7046157   13.9088695    7.3453195
   480     44    2   0.00000000    4.6347815   17.9759028   17.2706449
   481     44    2   0.00000000    6.9993716   14.6666539   -5.2788095
   482     44    2   0.00000000   -3.7531569   10.3984338  -12.7227178
   483     44    2   0.00000000  -13.5414146  -18.2852904    3.1671370
   484     44    2   0.00000000    6.3879269   19.3378206   -5.9226892
   485     44    2   0.00000000  -17.3182667  -11.6006403  -18.1300434
   486     44    2   0.00000000    2.6827353  -12.2975800   -7.1828434
   487     44    2   0.00000000    8.9953892   12.9044081   -4.5799119
   488     44    2   0.00000000  -14.7433104   15.6472159   -1.1966891
   489     44    2   0.00000000   -9.1957185  -19.9682337  -10.1290838
   490     44    2   0.00000000    6.8841071   10.8836912    7.2669573
   491     44    2   0.00000000   17.3970960  -10.9172848  -17.9594822
   492     44    2   0.00000000   -0.6299394  -19.3278348    5.9296680
   493     44    2   0.00000000    1.8888031   19.4590205   11.7894528
   494     44    2   0.00000000   -6.2625600   10.2581218  -11.6778047
   495     44    2   0.00000000    4.5556226   18.3220849  -19.8414585
   496     44    2   0.00000000    1.6805181  -16.8087681   -0.3269501
   497     44    2   0.00000000   15.4369333  -18.3059063    2.6324168
   498     44    2   0.00000000   10.6431999   16.8888714   -6.8265076
   499     44    2   0.00000000    0.8656546   14.9359313    6.4921618
   500     44    2   0.00000000    0.2436649   17.9186160   13.3804719
   501     44    2   0.00000000   -4.8790626  -14.4131200  -12.3957523
   502     44    2   0.00000000  -12.9127139  -10.8686573  -16.2247127
   503     44    2   0.00000000   -3.0499278   15.8200707   -8.6436221
   504     44    2   0.00000000  -11.3649988  -13.5691911   -6.9777428
   505     44    2   0.00000000    7.4517313   10.3789322  -10.4244215
   506     44    2   0.00000000    3.4984246   11.9515453   13.1444119
   507     44    2   0.00000000  -14.5634734  -18.6674754    8.8969576
   508     44    2   0.00000000   -0.8558653  -14.7321451    3.2986964
   509     44    2   0.00000000  -12.2621613   11.4940336  -19.5218475
   510     44    2   0.00000000   -0.3435086  -19.7580487   19.1816408
   511     44    2   0.00000000    2.3511892  -17.7307538   -5.9518835
   512     44    2   0.00000000   -6.5394139   15.7287259   -2.0993803
   513     44    2   0.00000000  -11.7253966   15.9410089   19.7292624
   514     44    2   0.00000000  -15.9328941   19.8850430  -15.0424671
   515     44    2   0.00000000    6.5882463   14.6015325  -16.7759265
   516     44    2   0.00000000  -15.8119925   16.8628269   17.0121393
   517     44    2   0.00000000   -7.9236427  -19.6530415    7.5340103
   518     44    2   0.00000000  -14.7824222   19.5302091    0.2714847
   519     44    2   0.00000000   19.1001277   10.4541878   18.0245943
   520     44    2   0.00000000    3.6835108   15.3704935   16.7975323
   521     44    2   0.00000000   19.1849216  -12.0829316  -16.3950320
   522     44    2   0.00000000   -1.0057144  -12.4505322  -10.3809740
   523     44    2   0.00000000   11.9868925  -19.2608013  -10.9936588
   524     44    2   0.00000000  -10.2822971  -16.3792758   10.6238985
   525     44    2   0.00000000   11.9000107   12.8874524    8.0345777
   526     44    2   0.00000000    6.3919168  -12.4664089    7.2004189
   527     44    2   0.00000000    8.9535890   18.8903014   -7.7814414
   528     44    2   0.00000000  -14.2655032   12.5227373    2.5675381
   529     44    2   0.00000000  -14.2508161  -10.0915500   -5.9171539
   530     44    2   0.00000000  -11.9384004  -17.6525642  -12.7895716
   531     44    2   0.00000000  -10.8834938  -18.0378082  -15.2576411
   532     44    2   0.00000000   15.1201601   17.0974765  -18.9109470
   533     44    2   0.00000000   -2.9726020  -14.9627400   11.8793717
   534     44    2   0.00000000  -13.0932997   17.3967007    0.9947184
   535     44    2   0.00000000   13.0382403   18.9940016   10.5682623
   536     44    2   0.00000000  -18.6240231  -14.7629951   14.6493866
   537     44    2   0.00000000    9.0155509   19.8800234   12.2757656
   538     44    2   0.00000000   19.8292555   11.3329515    4.8664491
   539     44    2   0.00000000   18.2794947  -13.1716423    6.2516253
   540     44    2   0.00000000    0.3978128  -10.4528801   12.5994623
   541     44    2   0.00000000   -0.5229374   16.9170815  -16.2745283
   542     44    2   0.00000000  -12.6014708   12.4941875   16.5117183
   543     44    2   0.00000000  -16.8368004  -14.2133443   -8.6133271
   544     44    2   0.00000000  -16.9183915   17.2941485    6.5363732
   545     44    2   0.00000000    1.2924137   12.4826540   -6.2716557
   546     44    2   0.00000000  -16.7887649  -13.6781442  -16.0717292
   547     44    2   0.00000000   12.2639290  -16.6608491    8.3316057
   548     44    2   0.00000000  -17.5340623   11.6625825    5.3067629
   549     44    2   0.00000000   -0.1144299   19.9031534   -3.4540435
   550     44    2   0.00000000   13.4599973   18.5447805   13.9925806
   551     44    2   0.00000000   -8.7793887   11.5866294   -2.0901604
   552     44    2   0.00000000    0.1024599   16.6702089    1.6849162
   553     44    2   0.00000000   11.3993891   13.4693619   14.9306008
   554     44    2   0.00000000    8.9360754   14.5300944    4.9432228
   555     44    2   0.00000000   16.5390637   10.9205004   17.1355972
   556     44    2   0.00000000    4.7261840  -19.5450446    2.4294946
   557     44    2   0.00000000   13.6815844  -19.1046594   -5.8582410
   558     44    2   0.00000000   -7.1216268  -17.0449640    6.5337633
   559     44    2   0.00000000   -9.7882648  -16.4068298   13.4293472
   560     44    2   0.00000000   12.7863349   16.1937708   -8.7234240
   561     44    2   0.00000000   -2.5374153   18.1193384    0.0471771
   562     44    2   0.00000000  -14.1110043  -14.8077020  -19.6162370
   563     44    2   0.00000000  -13.2424610  -19.5582104  -14.3912420
   564     44    2   0.00000000   -8.7312758   12.7055018   -9.3589394
   565     44    2   0.00000000   17.0720328   16.4077495    1.3992437
   566     44    2   0.00000000   15.6542628   19.0610891   -7.5560807
   567     44    2   0.00000000    2.6988281  -14.5824404    1.0660092
   568     44    2   0.00000000    5.3267653   13.0946129   17.9481069
   569     44    2   0.00000000   18.6889191   19.8781761  -10.8581133
   570     44    2   0.00000000   -8.8153602   10.1468496  -10.3527367
   571     44    2   0.00000000  -12.0965997  -12.5907146   -2.5533040
   572     44    2   0.00000000  -17.8811208  -16.7973195   19.5685162
   573     44    2   0.00000000   -6.5039769  -19.2354827  -17.2179963
   574     44    2   0.00000000    5.0794709   10.5480411   -5.8014827
   575     44    2   0.00000000   13.4900131   13.3433033    1.5894419
   576     44    2   0.00000000   15.5319934  -17.0904061   13.3408870
   577     44    2   0.00000000   -6.8213039  -18.3369028   -9.3219264
   578     44    2   0.00000000   12.2458173  -15.6538389  -14.7769453
   579     44    2   0.00000000   13.3288098  -10.7593418  -13.2733432
   580     44    2   0.00000000   13.9671236   10.8831373   -3.0026490
   581     44    2   0.00000000    0.0669539  -14.3450880   18.9638106
   582     44    2   0.00000000    0.0820235   11.9352848    9.0109925
   583     44    2   0.00000000   15.7446005   17.2740756    3.8470570
   584     44    2   0.00000000   12.5379621  -17.6918802  -19.2763003
   585     44    2   0.00000000    5.6954695   19.9048270    8.4565559
   586     44    2   0.00000000    0.8580165   11.0728867   17.0555507
   587     44    2   0.00000000   -2.5836349  -17.6068264  -11.7766853
   588     44    2   0.00000000   10.5266621  -12.9592700   -9.9534146
   589     44    2   0.00000000    3.1012983   14.3986726   14.3670710
   590     44    2   0.00000000    8.0674331   15.7083294   18.7178536
   591     44    2   0.00000000   17.0532342  -17.3681215   -4.8941353
   592     44    2   0.00000000   13.4243294   19.7592633  -19.0649483
   593     44    2   0.00000000   -4.5003252  -19.6217859   17.4033409
   594     44    2   0.00000000  -18.9519595  -15.7148414   -7.5499529
   595     44    2   0.00000000    7.1931355  -18.3566498    6.9046680
   596     44    2   0.00000000   -0.2046089  -18.8619795   -6.0324271
   597     44    2   0.00000000    5.6908773   19.5315283  -17.5045138
   598     44    2   0.00000000    8.4255954  -19.1353866   14.7016708
   599     44    2   0.00000000  -17.6507787   15.6011695  -14.3967121
   600     44    2   0.00000000    0.9106764   13.2051625   -9.2993330
   601     44    2   0.00000000    6.8934463  -12.6899631   14.9561892
   602     44    2   0.00000000   13.4525881  -17.4275604    4.1964494
   603     44    2   0.00000000   -0.4252784  -11.8254108    3.8254068
   604     44    2   0.00000000   -3.4827323   15.0100467  -13.8024257
   605     44    2   0.00000000   -3.3286615   12.0883796    5.8375361
   606     44    2   0.00000000   -4.7128455  -18.0404100    7.9493674
   607     44    2   0.00000000  -12.8307031   16.3814113   16.9353748
   608     44    2   0.00000000  -19.8313196  -16.4522858    7.6888643
   609     44    2   0.00000000   18.5333587   13.1757133   13.5598096
   610     44    2   0.00000000  -13.3613249  -19.4812018  -19.6497904
   611     44    2   0.00000000   17.6917968  -12.8182793   -9.3085371
   612     44    2   0.00000000  -14.5844878   17.9340815    8.0193131
   613     44    2   0.00000000  -10.9225721  -17.3540633   -3.4946270
   614     44    2   0.00000000   -4.6484065   19.0342927   -5.8009476
   615     44    2   0.00000000   17.3187661   13.1216869   -1.4053514
   616     44    2   0.00000000    2.1524986  -12.2485363   -2.8165001
   617     44    2   0.00000000    4.2650839  -12.8063875    5.0132109
   618     44    2   0.00000000   -9.4515214  -13.4913901  -13.3630017
   619     44    2   0.00000000   18.8053807  -11.1501972   -2.9601264
   620     44    2   0.00000000    9.8680822   12.1899947    2.9565301
   621     44    2   0.00000000   12.3724707   14.6137712   -3.4914240
   622     44    2   0.00000000    2.6887319   13.6737566   -2.2156011
   623     44    2   0.00000000   15.7510529  -13.3363371  -19.0984655
   624     44    2   0.00000000    6.6493023  -12.5047305    3.0572663
   625     44    2   0.00000000   -8.7034201  -14.2648649   -6.5740217
   626     44    2   0.00000000    8.3500460  -12.7344743   10.1540243
   627     44    2   0.00000000    3.2866731   13.9101111   19.4850815
   628     44    2   0.00000000  -17.2063536  -19.9302627   -5.6089448
   629     44    2   0.00000000  -19.7720429   16.1494744   -6.9879972
   630     44    2   0.00000000    9.2825836  -11.5989583   -4.3441671
   631     44    2   0.00000000   17.1251862  -19.3689022  -13.0637888
   632     44    2   0.00000000   19.6631436  -10.8277817    6.2736538
   633     44    2   0.00000000  -11.5039974  -14.5174023   12.2986956
   634     44    2   0.00000000   10.8407689  -16.9881147  -17.1015050
   635     44    2   0.00000000    6.9255480   18.7506320    6.2848719
   636     44    2   0.00000000   13.6541752  -12.3525895   -1.7634433
   637     44    2   0.00000000   10.6804730   13.5809211    0.6700294
   638     44    2   0.00000000  -12.4873543   14.0575771  -18.3317092
   639     44    2   0.00000000   -3.6597142   18.4146717   15.5317272
   640     44    2   0.00000000    8.5877019  -14.9808310   18.8066392
   641     44    2   0.00000000    7.0459591  -14.9501352   -6.1638347
   642     44    2   0.00000000   -2.2616894   17.5305352   10.3112282
   643     44    2   0.00000000   -7.1531196  -14.6538546    5.2524873
   644     44    2   0.00000000    9.8753135   11.1234882  -16.2472690
   645     44    2   0.00000000    3.2512921  -15.5494285  -12.7696613
   646     44    2   0.00000000    0.0277800   15.3531614   -7.9202293
   647     44    2   0.00000000  -14.3029846   19.0916909    2.8316644
   648     44    2   0.00000000    4.2592036   18.6289389  -14.6593394
   649     44    2   0.00000000   19.8206896   12.1725393   -1.1219955
   650     44    2   0.00000000   -0.7040436   15.5278244  -13.8256148
   651     44    2   0.00000000   17.9435025   10.6396315   -0.0003551
   652     44    2   0.00000000    8.6477636  -12.4365991   12.9480707
   653     44    2   0.00000000   10.1903333   16.4549826    8.5605623
   654     44    2   0.00000000   10.1604749  -19.6324120   16.8051725
   655     44    2   0.00000000   -3.0420032  -14.7798446  -10.1980313
   656     44    2   0.00000000    8.6457081   17.1123098   11.5732964
   657     44    2   0.00000000   -3.9482429  -10.0194130   -4.4559831
   658     44    2   0.00000000   12.6220543  -17.8193941   -3.5865425
   659     44    2   0.00000000  -10.1636845   17.7241677    8.1248911
   660     44    2   0.00000000    2.6113944   19.7385201    4.3637659
   661     44    2   0.00000000  -19.5915135   12.8063003   11.2804507
   662     44    2   0.00000000   -4.2286460   15.3488573  -11.1168582
   663     44    2   0.00000000   -7.5771268  -19.6377884    3.0146723
   664     44    2   0.00000000  -12.0612641  -14.7883015    0.3798432
   665     44    2   0.00000000   -3.1404973   14.4701664   14.3788051
   666     44    2   0.00000000   -6.7414125  -13.1803735  -13.8949767
   667     44    2   0.00000000  -18.0531037  -19.8235014   -9.6277063
   668     44    2   0.00000000   -9.6799312  -15.0335705   -8.9312718
   669     44    2   0.00000000   12.9943230   15.0953821   -0.5711993
   670     44    2   0.00000000   12.3228172   12.4914739   19.8338095
   671     44    2   0.00000000   11.7538257  -11.8895423    8.3421687
   672     44    2   0.00000000   -6.1448122   11.9174601  -14.0232726
   673     44    2   0.00000000  -12.1282028   19.3748061   -3.9946951
   674     44    2   0.00000000  -19.9341323   12.1371287   15.8649372
   675     44    2   0.00000000   -8.5992096   10.8439502   -4.8011191
   676     44    2   0.00000000  -10.7754820  -10.7535390  -11.2226393
   677     44    2   0.00000000  -10.7325588  -11.8824484   12.4091869
   678     44    2   0.00000000   -6.8961607   18.2513296    4.5728903
   679     44    2   0.00000000    3.8184124   17.7320089   -4.4934851
   680     44    2   0.00000000    1.4797749  -14.6848111   10.3627907
   681     44    2   0.00000000   -0.4814044  -17.0261338   19.9834439
   682     44    2   0.00000000   15.1367525  -10.6834742  -19.8439115
   683     44    2   0.00000000  -11.5526472  -17.7947177    5.0265876
   684     44    2   0.00000000   10.3248893   19.0172518   -2.7402339
   685     44    2   0.00000000  -12.4626281   18.6264041   18.4835559
   686     44    2   0.00000000    2.3695560  -14.0663133   -4.9583198
   687     44    2   0.00000000   18.2888448  -14.8490427    4.0094962
   688     44    2   0.00000000   17.7992410  -17.9953474  -17.8851524
   689     44    2   0.00000000   14.1861225  -12.4120233   13.0401869
   690     44    2   0.00000000   -0.5531349   10.2863945   -6.0568096
   691     44    2   0.00000000  -15.1467527   15.3150231    9.7269571
   692     44    2   0.00000000   -3.6801834  -12.1928047  -11.3115277
   693     44    2   0.00000000   15.4946628   15.4586123   -9.3709710
   694     44    2   0.00000000    3.4787244   17.9444664  -17.2511859
   695     44    2   0.00000000   11.4737646  -19.1384328   11.7118598
   696     44    2   0.00000000   -3.4799583   12.3220299  -14.6610959
   697     44    2   0.00000000    5.0086869  -19.4359766   18.4460266
   698     44    2   0.00000000   18.4833123   17.8803415    8.2529700
   699     44    2   0.00000000    4.8517906   15.1197112  -11.5517490
   700     44    2   0.00000000  -15.7810538   16.9745879    1.0567587
   701     44    2   0.00000000  -12.7506363   15.9775774    8.2731377
   702     44    2   0.00000000    8.5986206  -10.6608705  -19.0882515
   703     44    2   0.00000000   10.5212193  -11.1334332   10.7923520
   704     44    2   0.00000000  -19.0774818   16.2413125    7.9151047
   705     44    2   0.00000000   -9.4311706   15.8523048   -5.3785220
   706     44    2   0.00000000  -12.2425718  -10.2531350   10.7953593
   707     44    2   0.00000000   -9.4681090   19.9147173   -2.8774640
   708     44    2   0.00000000   -9.8330443   16.6585240  -14.8558486
   709     44    2   0.00000000    3.9611749   16.0520480    0.4095212
   710     44    2   0.00000000  -15.2263348   14.1789891  -12.3462275
   711     44    2   0.00000000  -15.5909534  -13.6596286    9.6578469
   712     44    2   0.00000000  -16.8609739   14.9311268   18.7023261
   713     44    2   0.00000000   10.4888259  -17.6676029   18.6836175
   714     44    2   0.00000000  -12.7145659  -12.8023120   18.8709316
   715     44    2   0.00000000   15.2078529  -12.4439410  -14.2215267
   716     44    2   0.00000000   10.2874909  -12.9397777  -19.1200926
   717     44    2   0.00000000    8.6542256  -12.1044909   -1.6410271
   718     44    2   0.00000000   -7.8081170  -10.8418289   -1.2033540
   719     44    2   0.00000000  -19.5880979   13.9014707    3.6639820
   720     44    2   0.00000000  -10.0635127   14.9736939    7.6301114
   721     44    2   0.00000000   -0.3739593   18.3972383  -13.5658332
   722     44    2   0.00000000    3.6491427   19.0300435   -9.9744685
   723     44    2   0.00000000   -4.9280321  -13.0243637    5.4738328
   724     44    2   0.00000000  -11.2885772   11.6669764  -10.1286822
   725     44    2   0.00000000   -0.4460574  -15.2881717    0.6113565
   726     44    2   0.00000000  -19.7156206  -17.1262755   15.9277752
   727     44    2   0.00000000   12.5129272  -14.3408313   -0.2573971
   728     44    2   0.00000000  -14.5057681  -18.8870347  -16.9959496
   729     44    2   0.00000000   -0.4128555   19.3545526    1.2613133
   730     44    2   0.00000000  -13.5966733   10.0119874  -10.1088968
   731     44    2   0.00000000    3.6674455  -12.3175602  -16.5861427
   732     44    2   0.00000000  -18.1365329  -14.9514316   17.4788753
   733     44    2   0.00000000    9.9410951   12.3840384  -18.6247300
   734     44    2   0.00000000  -17.0764773   10.4121151    9.6869617
   735     44    2   0.00000000    8.4634577  -16.1333320    5.5167474
   736     44    2   0.00000000  -14.9722873  -18.7960889   18.1234482
   737     44    2   0.00000000  -19.7206359   17.4055140   14.3406658
   738     44    2   0.00000000    3.0867773   10.1808815  -15.8955961
   739     44    2   0.00000000   -7.5214201   14.4263645    5.0549710
   740     44    2   0.00000000  -17.9256275  -13.6952587   -5.9235911
   741     44    2   0.00000000   -5.0448963  -14.8386670   -0.3725099
   742     44    2   0.00000000  -18.9102613   10.8135587    7.5114203
   743     44    2   0.00000000   -0.4582411  -17.9428580    1.0709075
   744     44    2   0.00000000    7.7377972   10.2391854   -4.5271573
   745     44    2   0.00000000    4.6028874   19.5970496   15.1099448
   746     44    2   0.00000000  -17.0628162   12.8347509    2.9799703
   747     44    2   0.00000000   -1.5158352  -18.9072873  -18.2570748
   748     44    2   0.00000000   13.2371324  -12.2441214  -10.9224147
   749     44    2   0.00000000  -12.1128829  -18.3819542   10.1324261
   750     44    2   0.00000000   -1.0588268  -11.6803645  -12.9548613
   751     44    2   0.00000000  -13.4325705  -13.5732760    7.7704359
   752     44    2   0.00000000  -18.1011897   15.3279590   10.3298093
   753     44    2   0.00000000   -0.8433284   13.0788173  -14.9204109
   754     44    2   0.00000000    4.0842423  -12.5869591    2.2250965
   755     44    2   0.00000000   -5.1903424   17.8623076   10.5065009
   756     44    2   0.00000000  -15.5911417  -16.1626655    3.1821100
   757     44    2   0.00000000  -18.3818606  -12.2338268    7.4886672
   758     44    2   0.00000000   -1.0486426  -16.4166043   17.3865332
   759     44    2   0.00000000   -5.6216573  -10.9143683   -8.8932732
   760     44    2   0.00000000  -13.4321480  -14.8532311   14.6028410
   761     44    2   0.00000000   11.2198812   16.6202262   -1.8862978
   762     44    2   0.00000000   -4.6727979  -18.2069852  -19.1105039
   763     44    2   0.00000000   -7.9881533  -13.0523236    3.2621742
   764     44    2   0.00000000  -13.6593519   11.7612848  -12.3464150
   765     44    2   0.00000000   18.0227585   14.6311093   19.5161194
   766     44    2   0.00000000   -7.3295978  -13.4744513   19.8199837
   767     44    2   0.00000000  -15.7976196   17.7865172   -5.3065862
   768     44    2   0.00000000   -4.8880413   12.6700988  -11.6505936
   769     44    2   0.00000000    8.4491050  -13.8908980   -8.2458977
   770     44    2   0.00000000    8.7874300  -13.9073225    7.4604817
   771     44    2   0.00000000   14.3290182  -19.3838295   12.5064206
   772     44    2   0.00000000  -19.4288487  -18.7569295  -19.1868146
   773     44    2   0.00000000  -13.5134816   13.5218399   -8.3654529
   774     44    2   0.00000000   -6.0227254  -19.3407695    5.6083316
   775     44    2   0.00000000   -6.9956347   14.1621373    2.1332413
   776     44    2   0.00000000   16.0611428  -12.1763591  -11.5377560
   777     44    2   0.00000000  -13.2900722   18.8654230   -9.2739299
   778     44    2   0.00000000    0.0788804   18.4743264   -7.0850908
   779     44    2   0.00000000    4.1731429   15.7459573  -18.6219574
   780     44    2   0.00000000  -13.2581509  -18.4565093   -8.2298905
   781     44    2   0.00000000   12.1974045  -13.5784079   18.9347716
   782     44    2   0.00000000   15.7337687  -17.0776195  -12.4579912
   783     44    2   0.00000000   -5.4287035  -11.5323757   18.5853533
   784     44    2   0.00000000   14.8170153  -19.9201095   -0.9015179
   785     44    2   0.00000000  -11.0902798   15.7248554  -12.1213020
   786     44    2   0.00000000   -2.6929721  -18.3014426   18.9984057
   787     44    2   0.00000000    6.8777737   13.1941643  -10.2957554
   788     44    2   0.00000000   -3.0426914   18.5524025   -7.8858718
   789     44    2   0.00000000    1.4296198  -10.4577202   -8.7785333
   790     44    2   0.00000000   -6.1263528  -17.2823057   -0.9621834
   791     44    2   0.00000000    3.4598476   15.6210248   10.4234023
   792     44    2   0.00000000   -5.2734323  -17.1778926   18.3824662
   793     44    2   0.00000000    8.9960156   12.1058912   -8.8426906
   794     44    2   0.00000000    6.7154659  -16.9733353   18.6275451
   795     44    2   0.00000000  -13.2966540  -16.4564636   -6.1247353
   796     44    2   0.00000000   15.4821679  -18.1234200    6.1881928
   797     44    2   0.00000000    5.8755124   13.7710002  -19.3842483
   798     44    2   0.00000000  -17.0727154  -16.3613948    5.4924124
   799     44    2   0.00000000    8.3835837  -12.1808354    5.1939204
   800     44    2   0.00000000    1.6877853  -10.4716745   19.1362175
   801     44    2   0.00000000    5.6725102   14.1177398   15.3094954
   802     44    2   0.00000000   17.7748888   13.1809690    3.9979598
   803     44    2   0.00000000   14.2191027   11.2785092    8.8596558
   804     44    2   0.00000000   18.8935134  -13.2899297  -11.7039161
   805     44    2   0.00000000  -19.3758266   11.9238702  -17.4578726
   806     44    2   0.00000000   12.8155681   10.0817003   10.9932240
   807     44    2   0.00000000  -19.2376314  -18.5788015  -11.8345017
   808     44    2   0.00000000   -5.7958714   11.0668803  -16.6001127
   809     44    2   0.00000000   -8.8046234  -13.7185695   13.0253284
   810     44    2   0.00000000    5.2937733  -11.9929399  -18.8649134
   811     44    2   0.00000000    8.6874604   11.7245384   -2.2579407
   812     44    2   0.00000000   18.7654858   15.5644546    6.3980578
   813     44    2   0.00000000    8.8616712  -19.0806410   -5.8269302
   814     44    2   0.00000000    3.2939812  -18.5700448   13.0587223
   815     44    2   0.00000000    8.0494949   15.9397274  -14.7711690
   816     44    2   0.00000000   16.0890533   12.5518028   -9.5184595
   817     44    2   0.00000000   -3.6443827   11.3163100   19.4184215
   818     44    2   0.00000000   17.3930859  -16.9941579   -8.9847022
   819     44    2   0.00000000   -3.7285868  -12.4569140   -0.1091991
   820     44    2   0.00000000   -5.3226122   11.5703318    8.9464736
   821     44    2   0.00000000  -14.8939423   10.9896267   -7.7789699
   822     44    2   0.00000000   13.3670719   11.2856466    6.2345880
   823     44    2   0.00000000   -7.1530100   19.5628530  -13.3480200
   824     44    2   0.00000000   18.9661334   16.5225465   17.7330391
   825     44    2   0.00000000    1.6923754  -15.0920816   -2.4960592
   826     44    2   0.00000000   -2.8852315  -12.8088853   19.7163380
   827     44    2   0.00000000    9.3713731   13.9582122    7.5675242
   828     44    2   0.00000000    5.2785741  -18.8149783   -9.8639597
   829     44    2   0.00000000   17.5967235  -12.0613617   16.2490688
   830     44    2   0.00000000    2.6874212   16.7262459   12.7537499
   831     44    2   0.00000000   17.8328376   17.2387002  -19.5175126
   832     44    2   0.00000000   -7.4665623   13.9408798    7.8493093
   833     44    2   0.00000000   15.6050339  -15.7440881    4.3197789
   834     44    2   0.00000000   10.7325042  -11.6259821    3.0257729
   835     44    2   0.00000000   11.6273098   10.5016426   15.2493716
   836     44    2   0.00000000  -12.6576611  -10.1030884   -0.9128378
   837     44    2   0.00000000   -4.5001236  -19.0876148   -3.9321078
   838     44    2   0.00000000   -4.8059922  -17.0953336    1.5779111
   839     44    2   0.00000000    1.5291621  -13.2476332   12.8796901
   840     44    2   0.00000000    8.4010812   18.3910731  -10.4600506
   841     44    2   0.00000000   17.6045175  -10.3168429   10.7924717
   842     44    2   0.00000000   17.7717133  -16.4733518   14.7924343
   843     44    2   0.00000000    9.3332832   17.8820938   17.5909500
   844     44    2   0.00000000  -17.0553488   11.5155023   -6.3031840
   845     44    2   0.00000000   -5.7551502   16.4851056   -8.7643096
   846     44    2   0.00000000   17.1037876   10.6669485   -2.6418439
   847     44    2   0.00000000    1.0629424   18.9314623    9.3041119
   848     44    2   0.00000000  -17.9191222  -17.4990472   11.3049938
   849     44    2   0.00000000   16.5694850   13.0294398   -4.2398317
   850     44    2   0.00000000   -5.4432879  -14.6352277    9.7360578
   851     44    2   0.00000000    8.8242023  -14.6751145   14.8529185
   852     44    2   0.00000000  -13.7735779   18.3324084  -16.1150229
   853     44    2   0.00000000   10.2802745   18.7385360   10.0765105
   854     44    2   0.00000000   11.5696642   10.1988479  -18.8077364
   855     44    2   0.00000000   12.9199263  -19.0546756   18.1803325
   856     44    2   0.00000000   15.3973788   19.0255222    1.6710054
   857     44    2   0.00000000   10.8998738   12.7339699    5.5324724
   858     44    2   0.00000000   13.0776736   19.4147427   -2.9295540
   859     44    2   0.00000000  -10.6055140   11.7186940   18.1589967
   860     44    2   0.00000000   -1.3734246   15.4935513   -0.3382215
   861     44    2   0.00000000    5.5147361   16.6777762    8.5518007
   862     44    2   0.00000000   -8.1988697   13.6864457   11.9505817
   863     44    2   0.00000000    0.8310187  -11.6839667   -5.1654526
   864     44    2   0.00000000    9.4418827   17.9661652   14.8640819
   865     44    2   0.00000000    6.0833129  -11.3032113   -2.2537775
   866     44    2   0.00000000   16.6013852  -13.8171423   13.4351668
   867     44    2   0.00000000    5.7302639  -14.5457077  -12.8377101
   868     44    2   0.00000000   11.8635651  -12.4358951   -5.2615799
   869     44    2   0.00000000  -18.4167646   16.3262421   16.5812652
   870     44    2   0.00000000  -11.9506892  -19.7569670  -17.2428873
   871     44    2   0.00000000   -1.7658600   16.6572745   -6.3856752
   872     44    2   0.00000000   -7.1354814  -13.3927142   -4.5950152
   873     44    2   0.00000000    6.6350058   13.7877737    7.1269142
   874     44    2   0.00000000   -6.8224690   16.2586457   11.9548796
   875     44    2   0.00000000    3.1063898   10.8892954  -18.5865831
   876     44    2   0.00000000  -10.1957256  -10.4592902  -17.0057694
   877     44    2   0.00000000  -19.7632838  -18.0418013  -16.5894694
   878     44    2   0.00000000   17.1745346   10.4192425    4.3152740
   879     44    2   0.00000000   18.3238863  -13.7860552  -18.5070075
   880     44    2   0.00000000   -6.7666810   15.0891948   -5.0742826
   881     44    2   0.00000000  -17.3169822  -10.7297462   -1.9584051
   882     44    2   0.00000000   11.9126134  -15.1177840   -4.7937486
   883     44    2   0.00000000   -9.0654408  -19.6770011    0.0694533
   884     44    2   0.00000000   -8.1140456  -18.3105864  -14.9813665
   885     44    2   0.00000000   -8.8707203  -15.6683160  -19.5178370
   886     44    2   0.00000000   -6.5425896   14.2137670  -10.1265447
   887     44    2   0.00000000   -5.9301450  -17.8955216   15.5790164
   888     44    2   0.00000000   -5.3988376   17.8074741   17.6814066
   889     44    2   0.00000000   14.0542477   16.3486912    6.4639570
   890     44    2   0.00000000   13.4261156  -11.6560236    4.0408752
   891     44    2   0.00000000   -6.6870664   19.2625868  -10.7595972
   892     44    2   0.00000000    5.4993025  -12.3877341  -14.3415912
   893     44    2   0.00000000    6.4263938  -17.7196291   -5.4456437
   894     44    2   0.00000000   -0.4404600  -14.0210965   -5.8790423
   895     44    2   0.00000000   -0.4199196   14.5388647   -5.2648779
   896     44    2   0.00000000   17.1318407  -16.8334796   17.4249348
   897     44    2   0.00000000    2.8318236   14.4535614   -7.7915247
   898     44    2   0.00000000   19.9839087  -11.2137835  -10.2179194
   899     44    2   0.00000000   -7.6868906   11.9961752    3.6855762
   900     44    2   0.00000000    0.0214383   17.5259797   19.0792627
   901     44    2   0.00000000   18.1452715  -12.3566162   -0.6159189
   902     44    2   0.00000000  -14.8866249  -16.0638523   -3.7374117
   903     44    2   0.00000000   18.7764722  -19.1894190    6.4700942
   904     44    2   0.00000000   11.5151528  -14.9550362   14.4716111
   905     44    2   0.00000000   -2.3900858  -12.0524075   -5.5654265
   906     44    2   0.00000000    3.6419635  -12.3359748    9.2863274
   907     44    2   0.00000000   -0.1761478  -13.6023024  -14.7574862
   908     44    2   0.00000000  -14.8147164   18.3651484  -13.1619520
   909     44    2   0.00000000   19.2912506   11.8716893  -14.4985887
   910     44    2   0.00000000    6.1074576  -10.6005011    4.8491150
   911     44    2   0.00000000    5.2665725  -17.6451499  -17.0241799
   912     44    2   0.00000000   17.8025807   14.0821164   11.1165279
   913     44    2   0.00000000    6.6737175   19.4497597   11.0018968
   914     44    2   0.00000000   -2.4423724   12.9034672   -0.0147424
   915     44    2   0.00000000   17.4090163  -13.2667352    1.9873386
   916     44    2   0.00000000  -10.6124537  -14.0392766    3.8933457
   917     44    2   0.00000000   19.5898544  -19.1183802   -4.4638104
   918     44    2   0.00000000   -2.5937363  -14.9071125    5.6520071
   919     44    2   0.00000000    7.1797297  -16.6121714   14.0361144
   920     44    2   0.00000000   14.8881191  -11.3326520  -17.1148012
   921     44    2   0.00000000   -2.9353803   14.1754225   -6.2725841
   922     44    2   0.00000000   17.4519894   14.6449569  -10.9587009
   923     44    2   0.00000000    3.2349582   14.2818919    5.1451423
   924     44    2   0.00000000  -18.4556657   13.2160888   13.8588545
   925     44    2   0.00000000  -15.1657441   13.6506592  -19.1093749
   926     44    2   0.00000000   -8.2683994  -11.5255350   -6.3137403
   927     44    2   0.00000000    3.6915025  -18.5098870   -1.3215759
   928     44    2   0.00000000    9.9679460   19.5903220  -12.5336273
   929     44    2   0.00000000    4.1281298   18.8719243   -0.0538683
   930     44    2   0.00000000  -12.9420012   14.3924777  -13.7049469
   931     44    2   0.00000000    2.2936845   14.6141607   -4.7729264
   932     44    2   0.00000000  -18.4076039   13.8937312   -2.7407316
   933     44    2   0.00000000  -19.5574814   16.1484630  -19.8492056
   934     44    2   0.00000000   17.8171250  -14.0592009   18.5502256
   935     44    2   0.00000000    5.4284427  -10.9225386   16.4098502
   936     44    2   0.00000000    6.2678840   11.9861860   13.7883487
   937     44    2   0.00000000   11.2130475  -19.6667611   14.3517580
   938     44    2   0.00000000   -0.7791248  -14.6477266   -8.5858831
   939     44    2   0.00000000   11.3742531  -12.6485260   12.9581621
   940     44    2   0.00000000  -16.6672281   17.5698632  -16.3128663
   941     44    2   0.00000000    3.1246178   13.2525593    0.4706053
   942     44    2   0.00000000   19.8214076  -11.1105122   12.2636953
   943     44    2   0.00000000   -9.6753949  -15.9630643    5.9024426
   944     44    2   0.00000000   -7.8255130  -15.2790089   11.0193659
   945     44    2   0.00000000    6.4692052   17.1629031   -4.3380307
   946     44    2   0.00000000    6.2187149  -18.2427264   16.2166592
   947     44    2   0.00000000    1.0375264  -12.0173101   10.3658279
   948     44    2   0.00000000   10.8474210   11.6226562  -13.8082413
   949     44    2   0.00000000    5.3178819   19.1560154   -2.4842679
   950     44    2   0.00000000   16.6753684   12.5427544  -14.2575727
   951     44    2   0.00000000  -11.5977641   15.1819597   -3.9429514
   952     44    2   0.00000000    2.4851000   17.5683567   15.4101630
   953     44    2   0.00000000   17.2997668   18.7506370   18.0357315
   954     44    2   0.00000000    8.9880287   18.1282963   -5.1185794
   955     44    2   0.00000000   14.0521010   11.5463402   16.0307410
   956     44    2   0.00000000    4.6050454  -18.9482295   -7.1448293
   957     44    2   0.00000000  -17.1750061  -17.6400307   16.8674133
   958     44    2   0.00000000    1.0823109   12.5223475   14.6402296
   959     44    2   0.00000000  -10.3733254  -17.0494189    0.1015694
   960     44    2   0.00000000   15.5684751   10.7490019   13.6909143
   961     44    2   0.00000000   19.7979526  -17.4018429   13.2493817
   962     44    2   0.00000000    4.9882710  -13.1975197   -6.1677526
   963     44    2   0.00000000  -17.3266582  -17.8349513   -7.8419082
   964     44    2   0.00000000   -2.3355478  -18.5121591    9.5660662
   965     44    2   0.00000000  -16.6925902   14.7312797    7.6070129
   966     44    2   0.00000000   18.3783721   10.1031089    6.8538794
   967     44    2   0.00000000    5.0347241  -10.4359164   -7.0242982
   968     44    2   0.00000000    8.7027432   10.6350761   14.7132389
   969     44    2   0.00000000   16.8936840  -13.4386254  -16.0739041
   970     44    2   0.00000000   16.5915792   19.8028683    7.8731721
   971     44    2   0.00000000   -4.5563384  -10.5333740    4.4085002
   972     44    2   0.00000000  -12.4159509  -14.4775720  -17.1694296
   973     44    2   0.00000000  -15.5274407  -15.2349937  -14.2653456
   974     44    2   0.00000000  -15.0819172  -15.5869948  -17.1302369
   975     44    2   0.00000000   10.1054212  -14.1550504    4.5383570
   976     44    2   0.00000000  -13.3112696  -15.2188321  -12.7598002
   977     44    2   0.00000000  -16.7734889  -19.7646243  -12.3403980
   978     44    2   0.00000000    3.7495423  -10.3867355    0.7306430
   979     44    2   0.00000000  -12.9588993  -17.0688002   19.0543797
   980     44    2   0.00000000    9.3194482   16.7424123  -12.3459968
   981     44    2   0.00000000   14.6438094   11.0419391   -7.5882036
   982     44    2   0.00000000   -7.2548392   18.1499770    1.4456600
   983     44    2   0.00000000  -13.4109710  -19.4816619    6.5494938
   984     44    2   0.00000000    1.5790981  -15.6528342  -19.1223754
   985     44    2   0.00000000    6.9916327   18.4622009   13.6699985
   986     44    2   0.00000000   -5.3901533  -11.9956515  -18.8335345
   987     44    2   0.00000000   18.9613778  -17.3584655   -6.7020228
   988     44    2   0.00000000   -5.3201244   18.5656401   13.1254882
   989     44    2   0.00000000   18.7150980  -15.5945143  -16.1729644
   990     44    2   0.00000000   19.9600692   13.2187292  -10.7361904
   991     44    2   0.00000000  -11.3380472  -15.2361091  -14.6453686
   992     44    2   0.00000000   -3.5059752  -16.7998764   16.4127949
   993     44    2   0.00000000   -3.3977177   17.0859422    7.4656519
   994     44    2   0.00000000   -8.7850525   12.0587312  -14.8404960
   995     44    2   0.00000000   14.2643161   16.0250548  -11.7535669
   996     44    2   0.00000000   13.8442291   11.1526111  -10.3389795
   997     44    2   0.00000000  -16.9128854   17.5274537    9.3211391
   998     44    2   0.00000000   -2.9872259  -12.0400728   -8.5120255
   999     44    2   0.00000000    1.7142371  -15.0265536   -7.3577783
  1000     44    2   0.00000000   16.8811826  -16.0063430    1.8941282
  1001     44    2   0.00000000   -0.5716556   10.3869875   13.5258186
  1002     44    2   0.00000000   -8.4168966  -10.8019391   13.5864163
  1003     44    2   0.00000000   -4.5623565  -16.5495828   -8.1884630
  1004     44    2   0.00000000   -3.9293496   11.7923571   -2.6268837
  1005     44    2   0.00000000   -0.1612797  -16.3904157  -16.9807349
  1006     44    2   0.00000000    8.1885066  -15.0176425    2.7852309
  1007     44    2   0.00000000  -13.1386860  -19.1426973   14.2374496
  1008     44    2   0.00000000   10.9365786  -10.8993440  -17.4794917
  1009     44    2   0.00000000   -7.5828730   12.1197565   14.1631232
  1010     44    2   0.00000000   16.0996437  -19.2739168  -10.2428342
  1011     44    2   0.00000000   -6.6828092  -15.0960845    1.9419551
  1012     44    2   0.00000000   12.1867186   18.5397523   16.5589092
  1013     44    2   0.00000000  -10.4103198   17.8589721  -17.2755461
  1014     44    2   0.00000000    3.2504046   11.2889259   18.5987447
  1015     44    2   0.00000000   -6.3696596  -15.2072607   -2.7569524
  1016     44    2   0.00000000   -6.6206517   13.0901316   -3.1543045
  1017     44    2   0.00000000    4.9438099   18.3448260    4.3670741
  1018     44    2   0.00000000   -3.4522232  -12.5534337  -14.4344978
  1019     44    2   0.00000000   -9.8342021  -10.9133952   -3.0628600
  1020     44    2   0.00000000    6.2500286  -13.6883329  -16.8051272
  1021     44    2   0.00000000   17.8096803   11.0652420   11.7859332
  1022     44    2   0.00000000    4.6895861  -16.2204514  -10.6291537
  1023     44    2   0.00000000  -10.6161417   12.7641403  -12.5187530
  1024     44    2   0.00000000   -4.3212266   14.7576374   -3.8287679
  1025     44    2   0.00000000   -6.1427871  -15.9345093  -19.4021567
  1026     44    2   0.00000000   10.3077272  -12.5894877   15.6421957
  1027     44    2   0.00000000   14.6119069   11.2518369   18.9281483
  1028     44    2   0.00000000  -16.6817176   16.0216398   -3.3872072
  1029     44    2   0.00000000   -2.7234849  -12.3731718  -17.4699917
  1030     44    2   0.00000000   -0.3710439  -11.9238817  -19.2333695
  1031     44    2   0.00000000   19.8045348   12.3930295   19.9112010
  1032     44    2   0.00000000   15.2344435  -15.2810765   18.5946611
  1033     44    2   0.00000000  -10.6212124   14.0551122  -14.9853534
  1034     44    2   0.00000000    4.0692816  -15.4790112   -1.1399833
  1035     44    2   0.00000000   -6.5161848  -17.1951206    3.8456114
  1036     44    2   0.00000000  -13.1463751   14.7202258    0.9822255
  1037     44    2   0.00000000    1.8438924   17.3160250  -14.7983966
  1038     44    2   0.00000000   11.2940516  -16.7728346    0.2108885
  1039     44    2   0.00000000    7.8728437   12.8470813  -14.8066907
  1040     44    2   0.00000000   -8.3450011  -10.9644461  -12.8424359
  1041     44    2   0.00000000   15.2103554  -15.0588484   -0.1956720
  1042     44    2   0.00000000   -9.2551504   16.6852813  -19.5108992
  1043     44    2   0.00000000   13.3403797  -17.4086886   10.7146908
  1044     44    2   0.00000000   16.3609925   18.7832821  -17.1536150
  1045     44    2   0.00000000  -11.0377161  -13.5691016   14.7758319
  1046     44    2   0.00000000    6.7097558   16.7571148  -18.8656369
  1047     44    2   0.00000000   11.4516042   14.3779495    3.3024950
  1048     44    2   0.00000000  -18.0010278   19.5153276   -3.1115308
  1049     44    2   0.00000000   11.3555757  -19.1156653    3.9810997
  1050     44    2   0.00000000    9.5885171   16.3549318   -9.1455238
  1051     44    2   0.00000000   -5.3946945  -18.5345135  -14.4917091
  1052     44    2   0.00000000  -13.4645817  -12.5319703    0.0818665
  1053     44    2   0.00000000   14.9536123   16.5566523   -7.0104000
  1054     44    2   0.00000000  -15.7811449   16.6752064   12.0309102
  1055     44    2   0.00000000  -17.6104849   15.4480352   -0.5905251
  1056     44    2   0.00000000   13.7363999  -17.3669895   -1.0281876
  1057     44    2   0.00000000  -10.0405841   13.5519963   14.7087635
  1058     44    2   0.00000000  -16.7420884   14.6925329  -16.8788803
  1059     44    2   0.00000000   -7.2373292  -18.9998889   17.6836127
  1060     44    2   0.00000000  -15.1924279   12.2930303  -10.1166297
  1061     44    2   0.00000000   13.5285075   13.4323938   -7.6674564
  1062     44    2   0.00000000   17.7025462  -15.8822842   12.0817318
  1063     44    2   0.00000000  -14.5044546   16.0552474  -17.6803529
  1064     44    2   0.00000000   -0.7316510   18.5776997  -18.5583468
  1065     44    2   0.00000000   10.8900425  -11.8015500   -0.1813575
  1066     44    2   0.00000000  -10.2312141   16.6550247   -7.7459186
  1067     44    2   0.00000000   -2.2247331   16.9600177  -11.9900559
  1068     44    2   0.00000000    4.2553441  -16.7454381  -19.8178127
  1069     44    2   0.00000000   12.7464408   15.4441879    8.7117065
  1070     44    2   0.00000000   11.2886718   14.7407608  -18.7754740
  1071     44    2   0.00000000   -2.9542564  -19.3247655    1.1954594
  1072     44    2   0.00000000   -9.1286467  -12.0294404   15.9130678
  1073     44    2   0.00000000    7.0735869   15.9607282   -9.9794434
  1074     44    2   0.00000000  -13.7500781  -10.7498357  -13.5966504
  1075     44    2   0.00000000   -2.2500761  -17.1314568    3.1214976
  1076     44    2   0.00000000   -0.9262143   12.6766130   18.4983913
  1077     44    2   0.00000000  -19.5446775  -10.0803804    3.6822600
  1078     44    2   0.00000000  -12.3805806  -18.9871612   17.1528948
  1079     44    2   0.00000000   19.8010779  -16.2030477  -18.6613992
  1080     44    2   0.00000000  -19.2861175  -15.3011139   -1.3134520
  1081     44    2   0.00000000   -9.6049215   10.9567076  -19.1041602
  1082     44    2   0.00000000  -12.1775803   17.8571446    6.3322355
  1083     44    2   0.00000000   12.5345239   13.5987422   17.3900821
  1084     44    2   0.00000000   12.7070622   15.3908556   -6.0682408
  1085     44    2   0.00000000  -19.6369781  -14.9751783   12.0520540
  1086     44    2   0.00000000   16.9430830   15.4460175    8.4615088
  1087     44    2   0.00000000  -19.0875970   15.6342805  -12.0240410
  1088     44    2   0.00000000    2.2762941   10.2793945    9.2336046
  1089     44    2   0.00000000   19.8533468   16.2472693    1.0889600
  1090     44    2   0.00000000   10.2032344   16.7575638    4.0520284
  1091     44    2   0.00000000    1.5831193   11.7407966    1.9559422
  1092     44    2   0.00000000   16.5357527  -10.2196212  -15.3275545
  1093     44    2   0.00000000  -11.0163106   10.1381635    6.2522727
  1094     44    2   0.00000000  -17.7229938  -10.0565231   11.6602805
  1095     44    2   0.00000000   -4.9236022  -16.9816697  -16.6520353
  1096     44    2   0.00000000  -13.0814314  -14.9538780   17.3608028
  1097     44    2   0.00000000   -3.7965085  -19.6960259  -16.9451382
  1098     44    2   0.00000000   14.7029325   13.7147825   -2.3528770
  1099     44    2   0.00000000  -15.8497868  -13.4188434    2.4840143
  1100     44    2   0.00000000    2.4883941   19.1719275   -2.6289997
  1101     44    2   0.00000000    2.8042936  -13.2528183  -14.1814892
  1102     44    2   0.00000000    1.0762646   11.5615869   11.6517411
  1103     44    2   0.00000000    3.9669985  -13.7386312   11.6325924
  1104     44    2   0.00000000    8.4645230  -13.1041150  -11.9508674
  1105     44    2   0.00000000  -15.8789410  -15.3044440  -11.3193595
  1106     44    2   0.00000000  -13.0291388   13.5820564   18.9565943
  1107     44    2   0.00000000   15.1440219   16.4376748   14.3747523
  1108     44    2   0.00000000    1.2786800  -13.8493551  -17.0308087
  1109     44    2   0.00000000   11.3562302   15.5603712    6.2301924
  1110     44    2   0.00000000   -5.7317482  -12.6074850   -2.0643634
  1111     44    2   0.00000000    5.7620877   11.5002735   -8.5081683
  1112     44    2   0.00000000   19.5671143   14.8778014   15.4415115
  1113     44    2   0.00000000    3.8169122  -11.0868492   -9.7794338
  1114     44    2   0.00000000   -8.3155838  -19.8441078   -7.4348247
  1115     44    2   0.00000000   -2.8632662  -15.6189260   19.4042677
  1116     44    2   0.00000000    2.8420948   17.8761491    2.3214938
  1117     44    2   0.00000000   -3.2093146   13.2017105   -9.4995878
  1118     44    2   0.00000000  -11.5271178   10.0098473  -12.3507661
  1119     44    2   0.00000000   10.9029782   18.6641607  -17.5313670
  1120     44    2   0.00000000    5.9317616  -12.4063406   -8.7334825
  1121     44    2   0.00000000    1.4622769  -11.6347129    1.7642426
  1122     44    2   0.00000000   -8.1442990   18.6439385   18.6729558
  1123     44    2   0.00000000  -17.8090576   17.7599614   18.8169853
  1124     44    2   0.00000000   14.3615415  -13.2606715   -4.3351116
  1125     44    2   0.00000000   18.8544839  -16.6085294   -2.9888598
  1126     44    2   0.00000000    8.6286025   13.3459765   14.3904958
  1127     44    2   0.00000000    6.3693454  -17.1824603    2.4615243
  1128     44    2   0.00000000   -3.9594044  -16.5488632   -2.5684139
  1129     44    2   0.00000000    8.9242489   14.4298415   -7.1942201
  1130     44    2   0.00000000  -12.7769742   13.6332049    9.9558861
  1131     44    2   0.00000000    0.6523716   15.4020078   14.3199936
  1132     44    2   0.00000000   17.1121502   16.9267130   -5.0233021
  1133     44    2   0.00000000   10.8091480  -11.7609298  -12.4322241
  1134     44    2   0.00000000   10.8870790  -15.5122336  -19.5914636
  1135     44    2   0.00000000   15.1408403  -16.5463709    8.4730907
  1136     44    2   0.00000000  -10.1925653  -11.3509692   -8.3900188
  1137     44    2   0.00000000   -7.8102539   19.1736303   11.7967506
  1138     44    2   0.00000000   -4.0321021   15.9717750   12.0925695
  1139     44    2   0.00000000   -5.6141039   15.9602096    0.4993722
  1140     44    2   0.00000000   -6.8836732  -17.0245898    9.1839226
  1141     44    2   0.00000000  -16.5826409   13.9460962   12.0007245
  1142     44    2   0.00000000   13.6361444  -15.0925007  -19.2159353
  1143     44    2   0.00000000   10.1395734   15.4776279   13.1708059
  1144     44    2   0.00000000   17.6618527  -19.0166362   -2.4531758
  1145     44    2   0.00000000   -5.5487579  -10.8592600   12.6629623
  1146     44    2   0.00000000   -8.2850714   10.1127126    5.5385782
  1147     44    2   0.00000000  -19.2671045  -14.3823522    5.9867586
  1148     44    2   0.00000000    0.9499639   19.2331324  -11.0098841
  1149     44    2   0.00000000    4.9141284   16.7051998   14.4242584
  1150     44    2   0.00000000  -16.2769732   13.2874370  -14.6446646
  1151     44    2   0.00000000   -8.9151961  -18.5649756    5.1260701
  1152     44    2   0.00000000   -3.0329762  -18.8042112   -6.7066741
  1153     44    2   0.00000000  -19.4991133  -19.6445362   11.9042039
  1154     44    2   0.00000000   -4.8475630   12.4292086   -5.1676359
  1155     44    2   0.00000000   -7.8280737  -18.2787758  -19.7350978
  1156     44    2   0.00000000  -13.3085372   10.2564217   -5.2611963
  1157     44    2   0.00000000   -5.7967352  -18.5237668   -6.6622987
  1158     44    2   0.00000000   -0.5466022   13.6388116  -17.9410757
  1159     44    2   0.00000000   17.3385105  -16.1094616  -19.8307382
  1160     44    2   0.00000000   12.7863998  -14.4665845    4.0852825
  1161     44    2   0.00000000   18.4497041   16.9903803  -16.8983616
  1162     44    2   0.00000000  -19.8481338   10.9742888   13.3332342
  1163     44    2   0.00000000   -1.0255881   17.5963916   -9.5406033
  1164     44    2   0.00000000  -13.7132811   19.3249782   -6.3666637
  1165     44    2   0.00000000   -5.1183973  -13.6853730   -9.0007396
  1166     44    2   0.00000000   -5.8531869   12.0410824   17.8711155
  1167     44    2   0.00000000  -12.2574441  -15.7268632   -8.5766369
  1168     44    2   0.00000000  -12.2132806  -17.1932554    7.6652199
  1169     44    2   0.00000000   12.9702404  -12.3114651   10.7239774
  1170     44    2   0.00000000    1.8521344  -19.6878249   -8.2884059
  1171     44    2   0.00000000   -8.8056123   10.1711768  -12.9832505
  1172     44    2   0.00000000  -10.7433681   14.4497471   17.3463848
  1173     44    2   0.00000000  -17.7577000   11.2044837   -1.6315624
  1174     44    2   0.00000000    7.2695946  -18.8851536   -8.0046991
  1175     44    2   0.00000000   10.8253287  -10.2303546  -14.7908064
  1176     44    2   0.00000000   -7.0302846  -15.5842153   -9.1921301
  1177     44    2   0.00000000  -16.8289921  -10.9817074    9.2851392
  1178     44    2   0.00000000   12.8968989  -16.7904999  -12.0502205
  1179     44    2   0.00000000   13.8229042  -10.4337281   -3.6368331
  1180     44    2   0.00000000   -9.7024595   11.3950349   12.2817269
  1181     44    2   0.00000000  -19.4052903  -19.5309835   -7.0818171
  1182     44    2   0.00000000    2.3443305   15.0771973  -10.5595291
  1183     44    2   0.00000000   17.3648714  -10.0523208  -10.0767431
  1184     44    2   0.00000000  -17.3419579  -19.2846612  -17.3205541
  1185     44    2   0.00000000   -8.6406840  -17.6274540   -2.0300824
  1186     44    2   0.00000000   -9.3389472  -16.4989133  -13.3170640
  1187     44    2   0.00000000    5.6386877   16.5812273   -1.7488130
  1188     44    2   0.00000000  -15.5748506  -11.1451049  -15.6536289
  1189     44    2   0.00000000   13.7397888   11.8936704  -14.3915532
  1190     44    2   0.00000000  -10.1464258  -13.2471498   -4.4808934
  1191     44    2   0.00000000  -16.6206218   11.1667364    0.9048947
  1192     44    2   0.00000000  -10.8992513  -10.8066051   -5.6359867
  1193     44    2   0.00000000  -14.3015065  -14.5035068   12.0558664
  1194     44    2   0.00000000  -14.0720410  -19.6401367  -11.3728516
  1195     44    2   0.00000000    6.1217589  -11.0363802    9.5686805
  1196     44    2   0.00000000   -6.7380500   10.1771956  -19.0668090
  1197     44    2   0.00000000  -16.9156011  -14.4650885    7.4147838
  1198     44    2   0.00000000    4.1371999   13.1341258   -9.9139290
  1199     44    2   0.00000000  -18.2636449   18.0993526    0.2467890
  1200     44    2   0.00000000   18.9451149   18.4408919   -3.5053411
  1201     44    2   0.00000000  -12.3467366  -15.1500477    5.6962784
  1202     44    2   0.00000000  -18.2720998   11.5854584   17.9178769
  1203     44    2   0.00000000   11.0483498  -16.5428764    2.8919365
  1204     44    2   0.00000000   12.7526545   13.0079533   10.6004733
  1205     44    2   0.00000000  -15.6845758  -12.0174915   11.8817367
  1206     44    2   0.00000000   -5.6823887  -10.6229871    0.5322118
  1207     44    2   0.00000000   -5.4423647   18.8822702  -15.3622838
  1208     44    2   0.00000000   -8.1899365   17.7487443   -9.0769735
  1209     44    2   0.00000000    5.6282686   14.0724825    9.7869223
  1210     44    2   0.00000000   14.5778278   18.3355754   -4.9605168
  1211     44    2   0.00000000   10.5906861   12.8721840   12.4493955
  1212     44    2   0.00000000   11.4095123   12.0182250   -3.5941056
  1213     44    2   0.00000000   16.1079231   19.6684653  -19.6986256
  1214     44    2   0.00000000   13.0495773  -11.3620590   17.7126811
  1215     44    2   0.00000000   -8.2528263   15.0282613   18.5614627
  1216     44    2   0.00000000  -16.1561599   18.0114268   -1.5845847
  1217     44    2   0.00000000  -13.5186584  -16.8714676  -10.6574072
  1218     44    2   0.00000000  -14.8739319  -13.0489056  -12.4673658
  1219     44    2   0.00000000  -12.3539336  -14.9081001   -4.1187403
  1220     44    2   0.00000000   -5.6399163  -14.4577574   12.4496373
  1221     44    2   0.00000000   -5.3659335   13.6674446  -16.1521383
  1222     44    2   0.00000000    9.5149661  -15.4417605  -10.1143554
  1223     44    2   0.00000000   15.0965211   12.1354436    4.0393442
  1224     44    2   0.00000000    5.2470212  -16.5946892   11.9732313
  1225     44    2   0.00000000    5.0553136   14.3096440   12.5013594
  1226     44    2   0.00000000   13.0670876  -12.0326093    1.3305813
  1227     44    2   0.00000000   12.6574952  -12.0204073  -15.7383170
  1228     44    2   0.00000000    4.7647991   12.5687251  -17.2452664
  1229     44    2   0.00000000   18.1533753   18.5887465    2.5078217
  1230     44    2   0.00000000   -1.0224572   11.5276738  -10.5464170
  1231     44    2   0.00000000   15.6926292   14.1670029   12.9082974
  1232     44    2   0.00000000    2.5059853   15.1298017  -13.4144715
  1233     44    2   0.00000000   -4.4400541  -13.9516755   -4.3384159
  1234     44    2   0.00000000  -11.8288852   19.1332345  -12.2295097
  1235     44    2   0.00000000   17.6298183  -15.8806519    6.4993216
  1236     44    2   0.00000000   16.4904151   12.1838316    1.7207691
  1237     44    2   0.00000000   16.6419646   19.7951478    4.6365489
  1238     44    2   0.00000000   18.4298052   17.3157055   -1.0062220
  1239     44    2   0.00000000   18.8860448   14.2167774  -13.1866744
  1240     44    2   0.00000000  -15.0107919  -14.3700322    5.3738609
  1241     44    2   0.00000000    9.6559441   18.5619684    6.9669237
  1242     44    2   0.00000000   -1.5412553  -19.2562746   -1.2565213
  1243     44    2   0.00000000   -5.9267261  -10.4777071  -14.1648562
  1244     44    2   0.00000000  -16.3170542  -17.4668464  -15.4902998
  1245     44    2   0.00000000  -10.2105399   16.3107224   15.2576768
  1246     44    2   0.00000000   13.4577952   13.9799822    5.1402878
  1247     44    2   0.00000000   -0.3724770  -10.1102316    6.2080077
  1248     44    2   0.00000000   19.7391817  -13.9232689    8.6763162
  1249     44    2   0.00000000   -3.1382498  -13.4753960    8.0997185
  1250     44    2   0.00000000  -15.4300488  -17.4969601  -19.2180452
  1251     44    2   0.00000000   -3.0592818  -15.9058022    9.2371082
  1252     44    2   0.00000000    4.3230426  -16.3167634   17.4526639
  1253     44    2   0.00000000   -1.4410070   17.8726851    5.7393484
  1254     44    2   0.00000000    8.1321258   11.9302727    5.1019641
  1255     44    2   0.00000000   11.1770540  -17.3956787   -5.9892413
  1256     44    2   0.00000000   17.6029851   16.2373814   -7.6246862
  1257     44    2   0.00000000   -7.7247747   18.1887644    9.2592644
  1258     44    2   0.00000000   14.3639190   17.4714663  -14.0854396
  1259     44    2   0.00000000   10.9088802   10.2671800   -1.5758099
  1260     44    2   0.00000000   -2.0823200   16.4586340   -3.7514409
  1261     44    2   0.00000000    2.5773440  -15.9455705   12.5408600
  1262     44    2   0.00000000   -8.1230479  -10.9027816   18.5011269
  1263     44    2   0.00000000  -16.4288281   11.9839702  -17.2411180
  1264     44    2   0.00000000  -19.9590940  -12.7987583    3.8850494
  1265     44    2   0.00000000   18.3020045  -17.3548529  -11.5066879
  1266     44    2   0.00000000  -12.3693196   19.1103318    9.0610166
  1267     44    2   0.00000000  -17.6158918  -17.1778820   13.9712227
  1268     44    2   0.00000000   19.8396220  -10.8619375   15.2647195
  1269     44    2   0.00000000    4.8624973   12.1276164    5.7701660
  1270     44    2   0.00000000   11.8473004   11.2118612   -8.2485781
  1271     44    2   0.00000000    0.5364612  -18.6186221   16.8477696
  1272     44    2   0.00000000  -10.3357711  -16.2683930  -17.2371831
  1273     44    2   0.00000000  -15.0320460   10.9101742  -14.7320994
  1274     44    2   0.00000000  -12.8074122   16.2234156   -8.5712674
  1275     44    2   0.00000000   12.7697929  -17.2802755   13.4762361
  1276     44    2   0.00000000  -18.8177037  -12.5548954   -3.6027930
  1277     44    2   0.00000000    1.6648507  -18.1154651   -3.1885775
  1278     44    2   0.00000000  -18.2333622   10.1537989    3.0507700
  1279     44    2   0.00000000  -14.9284902   19.5195671   -3.4867482
  1280     44    2   0.00000000   -3.2860537  -10.7291318    1.8459698
  1281     44    2   0.00000000    6.2012030  -10.9144749  -16.4371996
  1282     44    2   0.00000000  -15.8216068  -19.0132202    4.5225661
  1283     44    2   0.00000000   10.1371153  -11.4007666   -7.2279192
  1284     44    2   0.00000000   -8.1651855  -19.1966618   14.0249788
  1285     44    2   0.00000000    1.8656306   18.9268248  -19.4177531
  1286     44    2   0.00000000   -6.0810062  -19.5108352    0.6754912
  1287     44    2   0.00000000  -16.4166365   17.2993508    3.7113867
  1288     44    2   0.00000000  -15.5195684   10.3832770    3.6340754
  1289     44    2   0.00000000   13.6659063  -19.1865956   15.4762933
  1290     44    2   0.00000000   -5.1855818   17.5427755   -3.6542401
  1291     44    2   0.00000000  -10.6106531   10.5050782    9.3411039
  1292     44    2   0.00000000    6.7117561   15.9320046    0.6399494
  1293     44    2   0.00000000   15.2392009   19.8802601  -14.9695181
  1294     44    2   0.00000000  -15.0643060  -16.3310302   -8.4698678
  1295     44    2   0.00000000  -14.3781690   15.4467687   -6.0180895
  1296     44    2   0.00000000   -9.4473373  -17.3091392    8.2153069
  1297     44    2   0.00000000  -15.9661602   13.1678681   -1.8035321
  1298     44    2   0.00000000   -3.1069065  -14.7454578    1.5416545
  1299     44    2   0.00000000   -9.2400088  -10.6524178   10.5430491
  1300     44    2   0.00000000  -12.1871062   15.9321294  -16.3301619
  1301     44    2   0.00000000    3.1542097   11.5564233   -8.0413681
  1302     44    2   0.00000000   -8.4836271  -13.2386891   -2.2254601
  1303     44    2   0.00000000    6.3303379  -16.5661625   -0.3186929
  1304     44    2   0.00000000   15.6107698  -10.1315156   17.1832268
  1305     44    2   0.00000000   16.9496834  -14.6016711   -4.7831213
  1306     44    2   0.00000000  -19.9308988  -16.7499952    4.9194255
  1307     44    2   0.00000000   -2.7279357   17.4427885  -14.7097086
  1308     44    2   0.00000000   19.6102514  -16.6875692    2.2329260
  1309     44    2   0.00000000   -4.1737340   18.3043394    4.6672025
  1310     44    2   0.00000000    3.8841340   14.4587530    7.7794831
  1311     44    2   0.00000000   -3.1548686   12.5089904  -17.4148738
  1312     44    2   0.00000000  -10.2998839   16.1065330    4.9563389
  1313     44    2   0.00000000   -1.5925542   16.6534313   15.2969274
  1314     44    2   0.00000000   11.0816795  -11.8046035    5.7381734
  1315     44    2   0.00000000   14.6317922  -14.5625312  -11.9563401
  1316     44    2   0.00000000   16.1399458  -16.3562904   -2.5036294
  1317     44    2   0.00000000  -12.0455719   19.9374184    1.2359455
  1318     44    2   0.00000000   19.2147511  -17.5295085  -14.0770095
  1319     44    2   0.00000000    1.9921424   11.3402850  -10.8824320
  1320     44    2   0.00000000   -3.9090641  -12.7854197   13.6173855
  1321     44    2   0.00000000  -11.0031232   19.3628807   -7.9111190
  1322     44    2   0.00000000   11.4772971   16.2521257  -16.4507251
  1323     44    2   0.00000000  -12.4535004  -16.9818904   12.6967823
  1324     44    2   0.00000000   -7.1664375  -12.9588007    0.3608699
  1325     44    2   0.00000000   18.8985196  -13.8667516   -2.8529888
  1326     44    2   0.00000000   13.2695941  -14.0557289   16.4984976
  1327     44    2   0.00000000  -15.7655168  -19.0428479   14.9316040
  1328     44    2   0.00000000   -6.3094924   19.3575023   15.5739458
  1329     44    2   0.00000000   11.4038102  -14.3403284    7.0216955
  1330     44    2   0.00000000  -11.9856023  -12.7678943  -12.7196176
  1331     44    2   0.00000000    1.3769877   16.4036330  -18.2216222
  1332     44    2   0.00000000   -5.0066046  -15.3611339    7.0651774
  1333     44    2   0.00000000  -13.8998668   10.2839176    1.0925542
  1334     44    2   0.00000000  -16.9448742   18.2213776   14.6937517
  1335     44    2   0.00000000   -2.5359915  -14.7727578   14.6883333
  1336     44    2   0.00000000   -4.8872468   12.7160966    1.4217101
  1337     44    2   0.00000000   -9.7721841   18.7256695   -5.4985667
  1338     44    2   0.00000000   -5.0929212   12.5816716   15.3250139
  1339     44    2   0.00000000  -17.3853119   13.6780730   16.3297446
  1340     44    2   0.00000000   13.1549729   11.9445804   13.2494796
  1341     44    2   0.00000000    2.0494068   11.0957077    4.7675567
  1342     44    2   0.00000000  -16.3018343   13.7131179   -4.6871077
  1343     44    2   0.00000000   15.2367727   13.0369708  -16.4751102
  1344     44    2   0.00000000   -1.9365870   13.4960799    3.9952827
  1345     44    2   0.00000000   12.0959244   16.3102990   14.9157611
  1346     44    2   0.00000000    3.6267678  -17.7276544  -14.3196346
  1347     44    2   0.00000000   -0.5033440   17.7909347   -1.7468839
  1348     44    2   0.00000000  -12.2810481   11.3059443   11.2824088
  1349     44    2   0.00000000   19.9066909  -13.7058245  -14.4285376
  1350     44    2   0.00000000   11.2753247  -13.1888785   -2.6558357
  1351     44    2   0.00000000   -3.9730666  -19.1126989   -9.3359616
  1352     44    2   0.00000000  -12.7979671  -10.0496228    6.8861086
  1353     44    2   0.00000000   -1.9495274  -18.0814436   -3.9770537
  1354     44    2   0.00000000    4.8564447   11.0209189    1.2160704
  1355     44    2   0.00000000   13.6148516  -12.8912037    6.4018378
  1356     44    2   0.00000000   -3.3645223  -10.1666336  -13.1580374
  1357     44    2   0.00000000  -14.7167558  -11.5279386   -2.4828197
  1358     44    2   0.00000000  -16.0340807  -12.0175430   -7.1403081
  1359     44    2   0.00000000   -9.5972255  -14.2040482    1.3280893
  1360     44    2   0.00000000    4.3998182  -16.8546793   14.7538699
  1361     44    2   0.00000000   -1.5943987  -16.4931487   -6.5017276
  1362     44    2   0.00000000    9.7592039   17.0294508  -19.6999310
  1363     44    2   0.00000000    1.1326736   19.1149938  -16.6702474
  1364     44    2   0.00000000   -4.0416462  -12.4325774   10.7669320
  1365     44    2   0.00000000  -15.2035495   17.3074698   -7.9270214
  1366     44    2   0.00000000    3.6715486   12.0240155   15.9508947
  1367     44    2   0.00000000    6.0527305  -18.9592643   13.2235003
  1368     44    2   0.00000000  -10.7115816  -17.9787960  -19.5209464
  1369     44    2   0.00000000   -4.7888341   13.8374835   -1.0683304
  1370     44    2   0.00000000   14.7531717  -13.9385843    2.2991135
  1371     44    2   0.00000000   -9.5618257  -19.5728737    9.7340786
  1372     44    2   0.00000000   18.4139683   13.9821090    1.1556433
  1373     44    2   0.00000000   14.7091809  -16.7578909   -9.8683147
  1374     44    2   0.00000000    0.9634814  -13.3166674   -0.5437244
  1375     44    2   0.00000000  -15.9220869   18.4356816  -10.3676787
  1376     44    2   0.00000000   -0.4853162   12.4636400    6.4140469
  1377     44    2   0.00000000  -13.5984001   12.5631794   -0.4961619
  1378     44    2   0.00000000    0.5461927   17.3780013   -4.3377091
  1379     44    2   0.00000000  -14.2352546  -14.0845464   -6.9848019
  1380     44    2   0.00000000   -7.1430996  -17.9900488  -12.1431472
  1381     44    2   0.00000000  -18.7191236   13.2636988    0.8177180
  1382     44    2   0.00000000   12.4378481   17.1897178  -19.2039473
  1383     44    2   0.00000000  -17.8788716   19.2597151    4.7764341
  1384     44    2   0.00000000   15.3778058   10.6947032  -12.5128423
  1385     44    2   0.00000000   13.6806478  -14.1026226   -6.7709748
  1386     44    2   0.00000000  -10.5461623  -12.2709048   -0.4442569
  1387     44    2   0.00000000   -6.4545777  -12.4641546  -11.2092673
  1388     44    2   0.00000000    6.6365807  -15.5975162    7.5325317
  1389     44    2   0.00000000   -1.5223115   10.7440856  -16.1738775
  1390     44    2   0.00000000    9.9942354  -18.4045917   -3.3427196
  1391     44    2   0.00000000  -11.8150193   14.5045349   -6.4806909
  1392     44    2   0.00000000   13.0361850   16.5563207    3.9697857
  1393     44    2   0.00000000   17.8753295   14.6040788  -15.6656328
  1394     44    2   0.00000000   -0.5839686  -16.6641749   -1.9882831
  1395     44    2   0.00000000   16.1520487  -15.7655972  -17.4583371
  1396     44    2   0.00000000   14.2345957  -13.9157205  -16.7651061
  1397     44    2   0.00000000   -4.7473125  -19.2835873    3.2596061
  1398     44    2   0.00000000   19.3144370   16.2664021   10.2803957
  1399     44    2   0.00000000   15.8537370  -14.0099067    7.3927463
  1400     44    2   0.00000000   18.9649909   19.9022435   14.2830193
  1401     44    2   0.00000000   17.9995269  -19.6715109   -8.1154012
  1402     44    2   0.00000000   -8.9185805  -16.1059420    3.3167170
  1403     44    2   0.00000000  -12.5552461   12.0653451    5.0408348
  1404     44    2   0.00000000   17.3781201  -15.1273412    9.4280440
  1405     44    2   0.00000000   -6.1265092   10.1560155   -6.4956779
  1406     44    2   0.00000000   -4.3304958  -16.5631126   13.6933427
  1407     44    2   0.00000000  -19.4315147  -13.0192778   -8.1814794
  1408     44    2   0.00000000   10.8274545  -10.1043156   16.8115765
  1409     44    2   0.00000000    3.8754237   18.4820289   -7.2382233
  1410     44    2   0.00000000  -13.1830499   11.1742898   -2.7367595
  1411     44    2   0.00000000    1.9003580  -15.7490716  -10.3279173
  1412     44    2   0.00000000  -17.0058187   19.5910100   17.0594978
  1413     44    2   0.00000000   -2.5406332  -11.7181035    6.0042287
  1414     44    2   0.00000000  -19.5144933  -14.1605891   19.7101214
  1415     44    2   0.00000000    7.4796331  -17.2042014  -10.3171778
  1416     44    2   0.00000000    6.9086107   16.4775043   16.3922940
  1417     44    2   0.00000000    0.6513229   14.7802349   19.6516874
  1418     44    2   0.00000000  -14.6687144   16.2782631   14.6330890
  1419     44    2   0.00000000    8.7293556  -19.1930471   -0.9040702
  1420     44    2   0.00000000   10.1434795  -19.3859586  -15.8313715
  1421     44    2   0.00000000  -12.8423154  -17.0403483  -18.1154779
  1422     44    2   0.00000000  -19.4800515  -19.5687624    1.2857761
  1423     44    2   0.00000000  -14.7146517   18.5429530    5.3710331
  1424     44    2   0.00000000    9.5693495  -13.9100348   -5.7520742
  1425     44    2   0.00000000    5.3831452   13.8181418  -14.3604996
  1426     44    2   0.00000000    8.3663193  -11.3739942   -9.4043448
  1427     44    2   0.00000000   11.8444644   18.5628888    5.3889446
  1428     44    2   0.00000000   -7.1180721  -13.1832156   17.1591950
  1429     44    2   0.00000000    2.0108868   16.6745873   -6.4520753
  1430     44    2   0.00000000  -17.2215550  -19.4277446   -0.6814717
  1431     44    2   0.00000000   -8.5687256  -14.7988408   15.5042980
  1432     44    2   0.00000000  -16.4693048  -18.2015048   -3.5478616
  1433     44    2   0.00000000  -15.1343132  -10.0499714   -8.7921800
  1434     44    2   0.00000000   11.1696126  -14.8269876   -7.7098413
  1435     44    2   0.00000000   13.3725724  -16.7357485   -7.4600863
  1436     44    2   0.00000000  -19.1776914  -18.9316812   18.0948634
  1437     44    2   0.00000000    9.5928785  -16.1578110  -14.8286131
  1438     44    2   0.00000000   -6.1913542   11.4487082   -0.9500183
  1439     44    2   0.00000000   -6.2091591  -19.5422359    9.9273516
  1440     44    2   0.00000000   -9.1025133   13.4677347   -4.2164325
  1441     44    2   0.00000000   19.6022981   19.3681074  -13.4461137
  1442     44    2   0.00000000   -8.0333135  -11.2926300  -18.5883844
  1443     44    2   0.00000000   -6.6705285  -17.4536221   -4.2151204
  1444     44    2   0.00000000   -6.6303943  -16.1093403  -14.1059361
  1445     44    2   0.00000000    4.3175972  -15.8265278   -6.1445135
  1446     44    2   0.00000000    8.8826289  -16.4617421   -4.8191905
  1447     44    2   0.00000000   -8.0407049   19.0073841  -18.6336714
  1448     44    2   0.00000000   -5.0547442  -16.6913205  -10.9253033
  1449     44    2   0.00000000   12.6791027  -18.8342721    6.4423927
  1450     44    2   0.00000000    4.1225729  -11.8861779   18.7213005
  1451     44    2   0.00000000   -0.5276634  -11.9681437   17.9235123
  1452     44    2   0.00000000    7.0060640  -14.4849357   12.1295492
  1453     44    2   0.00000000    6.4066045  -15.6242526   -3.5610343
  1454     44    2   0.00000000  -10.6575941  -18.8556872   15.0423228
  1455     44    2   0.00000000    3.9657172   18.3022827    6.9174913
  1456     44    2   0.00000000   11.9451200   16.2007748  -13.7908074
  1457     44    2   0.00000000    7.3412093   18.4438265   -0.5267105
  1458     44    2   0.00000000  -11.6902296  -13.1824119   -9.8254264
  1459     44    2   0.00000000  -12.2826477   14.6569023    6.0018618
  1460     44    2   0.00000000   -4.6406912  -15.1476217    3.7706089
  1461     44    2   0.00000000  -17.9626100   12.8782108    9.0932389
  1462     44    2   0.00000000   11.0313278  -15.9847397   -2.3361651
  1463     44    2   0.00000000   19.8522893   18.3905134   -8.8820594
  1464     44    2   0.00000000   -2.2204539   17.4643171    2.7800414
  1465     44    2   0.00000000  -14.2675321  -13.8412173   -9.7408236
  1466     44    2   0.00000000  -12.0005028   15.7889982   -1.2599480
  1467     44    2   0.00000000   -5.9137715   16.1311408    8.5997460
  1468     44    2   0.00000000    5.3938945   15.8142970   18.8240848
  1469     44    2   0.00000000  -14.6236279  -18.5118068   -1.4918217
  1470     44    2   0.00000000   -4.4933036  -12.5828056   16.2535689
  1471     44    2   0.00000000    4.0628237  -14.3512894   -8.6555794
  1472     44    2   0.00000000   17.5850564  -18.8421564   12.4496249
  1473     44    2   0.00000000    6.4805080  -18.6877957  -19.3088964
  1474     44    2   0.00000000   16.7457825   12.7649045    9.0212981
  1475     44    2   0.00000000   -2.0218005   12.1119299   -4.7485460
  1476     44    2   0.00000000  -16.0225420  -18.0578228  -10.3672018
  1477     44    2   0.00000000    2.3232037  -12.5609733  -19.2278930
  1478     44    2   0.00000000  -10.9058061   17.6588350  -10.1561817
  1479     44    2   0.00000000   18.7925060   10.4406476   -4.7730610
  1480     44    2   0.00000000  -15.6538360   12.4079515   18.3785933
  1481     44    2   0.00000000  -18.2951963  -12.1508501    1.8599489
  1482     44    2   0.00000000   19.9475514  -11.2398467    9.4391427
  1483     44    2   0.00000000   11.1915421  -16.6229221    5.6044460
  1484     44    2   0.00000000   -3.0679404   15.7901046    4.7919159
  1485     44    2   0.00000000    5.9726771  -19.2611577  -14.8826496
  1486     44    2   0.00000000   16.8685134   15.3513957   16.1946162
  1487     44    2   0.00000000    4.2424420  -19.2636961   -4.4092265
  1488     44    2   0.00000000    8.8619709  -17.9391520    3.6124851
  1489     44    2   0.00000000   16.8925481   15.6084965   -2.5374393
  1490     44    2   0.00000000    7.5223483  -11.9803868   -6.5719407
  1491     44    2   0.00000000   10.7638000   10.2252225   12.8091620
  1492     44    2   0.00000000  -15.1096389   18.5762156   19.0264749
  1493     44    2   0.00000000   -8.0439058  -17.9599348   11.4387038
  1494     44    2   0.00000000  -15.0754066   12.9278508    5.1657307
  1495     44    2   0.00000000   -9.8517318   14.9386730  -17.4671978
  1496     44    2   0.00000000   -5.4312111  -12.1351564  -16.2150635
  1497     44    2   0.00000000   18.3934297   12.8675030    6.6909703
  1498     44    2   0.00000000    8.2492277  -10.7713621   16.4619508
  1499     44    2   0.00000000    4.6072081  -19.2801539    5.9287256
  1500     44    2   0.00000000   14.1621059  -19.2201157    8.7526005
  1501     44    2   0.00000000   15.5404166  -12.3185512    0.0938821
  1502     44    2   0.00000000   17.9586982   10.6172959   14.8640993
  1503     44    2   0.00000000   -7.8098562   17.6709118   14.0603995
  1504     44    2   0.00000000  -12.0608582  -12.0328485  -18.5566526
  1505     44    2   0.00000000    9.0332574  -11.1834180    7.9566684
  1506     44    2   0.00000000   14.2703770  -19.5474911  -12.3648364
  1507     44    2   0.00000000  -11.4841924   12.2193018   -4.7683404
  1508     44    2   0.00000000   14.1022506   16.4928533    1.5535851
  1509     44    2   0.00000000  -15.6511949  -13.2481196   14.4034353
  1510     44    2   0.00000000   -8.5699730   15.9818085    0.4948223
  1511     44    2   0.00000000    4.4470145  -13.7404004   -3.2474777
  1512     44    2   0.00000000  -12.8473248   13.9949425  -10.9489391
  1513     44    2   0.00000000   14.2345995   16.9734686   11.8473483
  1514     44    2   0.00000000   13.8099390  -15.6830556    6.3222701
  1515     44    2   0.00000000   -7.8430843  -17.4912010    1.2280011
  1516     44    2   0.00000000    6.8045610  -16.3872999  -15.1807974
  1517     44    2   0.00000000  -10.5977060   17.4724856   -2.9542173
  1518     44    2   0.00000000   19.5158966   15.8762358   -9.6948104
  1519     44    2   0.00000000  -16.0737432  -11.9562380    0.1598996
  1520     44    2   0.00000000  -18.6321217   17.6023822   -4.9425095
  1521     44    2   0.00000000  -14.3535049   19.0286895   16.2737631
  1522     44    2   0.00000000   12.5608755  -11.2014214   14.9640408
  1523     44    2   0.00000000   -0.1412082  -13.6554826    5.7543651
  1524     44    2   0.00000000   16.6146534   14.8529252  -18.2210209
  1525     44    2   0.00000000    6.4982501  -15.7881182  -18.5138751
  1526     44    2   0.00000000    6.7128464  -19.4030481    4.2814014
  1527     44    2   0.00000000   -2.3153024  -14.7896739  -15.9582473
  1528     44    2   0.00000000   14.9074789   17.4060694    8.8818602
  1529     44    2   0.00000000    1.4188640   15.2679834   -0.1692038
  1530     44    2   0.00000000   11.4274841  -18.1821242  -13.8861896
  1531     44    2   0.00000000  -14.9236342   18.9418733   10.5712836
  1532     44    2   0.00000000   19.3489384   14.3744096  -18.0822766
  1533     44    2   0.00000000    7.1329275   19.2047306   16.3757093
  1534     44    2   0.00000000   -2.6730467   12.3951983    8.6463274
  1535     44    2   0.00000000   -3.6952522  -19.9020123   11.4882137
  1536     44    2   0.00000000    6.6712996  -15.3104013   16.4066328
  1537     44    2   0.00000000   -3.6703730   16.2304678   -1.5553318
  1538     44    2   0.00000000    6.2632671  -17.4812436    9.4563026
  1539     44    2   0.00000000   -9.0279443  -11.1641091    1.4326255
  1540     44    2   0.00000000    3.9368806  -15.7815306    9.7411378
  1541     44    2   0.00000000    0.2149036  -18.5252942    8.4498176
  1542     44    2   0.00000000    9.4381180  -14.6065288   -0.3738025
  1543     44    2   0.00000000    8.6811804  -17.0354590  -19.3846079
  1544     44    2   0.00000000   10.2114346   14.1992568   10.1697535
  1545     44    2   0.00000000    1.5350889  -13.1684490   -9.5221851
  1546     44    2   0.00000000  -18.4646764  -13.5576230  -10.7830707
  1547     44    2   0.00000000   12.7933685  -13.4251202  -13.4294291
  1548     44    2   0.00000000  -18.0206279   13.7609085  -19.1298288
  1549     44    2   0.00000000   17.9490876  -18.7817763    1.9337463
  1550     44    2   0.00000000   -3.7018050   16.7505944   19.6794549
  1551     44    2   0.00000000   -7.0797524   19.7524179   -4.8475528
  1552     44    2   0.00000000   -1.1634673   12.6193231   -7.6412483
  1553     44    2   0.00000000   -9.5867960   13.8904608    2.8869559
  1554     44    2   0.00000000   -0.6418531  -15.7225609  -11.1496385
  1555     44    2   0.00000000   18.8032310   19.4562195  -18.1860715
  1556     44    2   0.00000000   -3.6792752   11.4727180   -7.3986738
  1557     44    2   0.00000000  -12.8378768   17.9038245  -18.7537165
  1558     44    2   0.00000000   -6.7561329  -19.6994698   -2.2066247
  1559     44    2   0.00000000    6.2834076  -11.6169270    0.4671648
  1560     44    2   0.00000000   -1.3378591   19.6027329  -15.9024630
  1561     44    2   0.00000000   14.3010909   14.6902420  -14.4735300
  1562     44    2   0.00000000   13.7094830   15.0916649  -17.4698358
  1563     44    2   0.00000000   15.1571781   11.5882061   -0.6207368
  1564     44    2   0.00000000    8.6779684   12.1707349  -12.1806367
  1565     44    2   0.00000000    2.5898026  -14.6465415   15.0762037
  1566     44    2   0.00000000   15.9869408   13.9405785   -6.9185570
  1567     44    2   0.00000000   -0.1404985  -16.4957136    5.3038948
  1568     44    2   0.00000000   13.5721499  -14.3206700    9.0243713
  1569     44    2   0.00000000   -1.6572149   11.2316063   11.0322607
  1570     44    2   0.00000000    0.3271242   18.5001408    3.7655001
  1571     44    2   0.00000000   15.2745000   12.0726069   11.2674406
  1572     44    2   0.00000000   11.7283768   11.0385313    1.0487110
  1573     44    2   0.00000000   19.4570093  -17.0559049   10.4157282
  1574     44    2   0.00000000  -17.1029340  -19.6819213    9.8294144
  1575     44    2   0.00000000  -13.4068896  -18.2673645   -3.9201250
  1576     44    2   0.00000000    2.2049763   15.0135799    2.5315445
  1577     44    2   0.00000000  -13.8435311   16.8107669   -3.5913647
  1578     44    2   0.00000000  -14.9325250  -10.9169991   17.5637896
  1579     44    2   0.00000000   -8.0527782   16.6856330    6.7211421
  1580     44    2   0.00000000   -6.6343491  -12.8147662   14.4063569
  1581     44    2   0.00000000   11.9231052   13.7618645  -15.3708693
  1582     44    2   0.00000000   12.5515667  -12.1877236   -8.2512419
  1583     44    2   0.00000000    2.2181219   19.2046459   17.8544405
  1584     44    2   0.00000000  -16.4615534   11.6627835  -12.4012721
  1585     44    2   0.00000000  -16.8058764  -13.5388054   -1.9750884
  1586     44    2   0.00000000   14.5646166   13.7785949    7.6804722
  1587     44    2   0.00000000    9.5294195  -16.7383726    7.9517481
  1588     44    2   0.00000000  -19.0813028  -13.9463006  -17.4269169
  1589     44    2   0.00000000    3.3225342  -19.4484092  -16.3056084
  1590     44    2   0.00000000    4.5033220   13.1956899   -6.0121508
  1591     44    2   0.00000000   -2.0920430  -19.9288311    3.7172524
  1592     44    2   0.00000000  -16.3829538  -16.3726007   -1.3455043
  1593     44    2   0.00000000    0.8552850  -11.5848733   15.0172802
  1594     44    2   0.00000000   -5.4658646   18.2190942  -18.0192780
  1595     44    2   0.00000000    3.6878327   11.2496465   -1.3676337
  1596     44    2   0.00000000    1.7133444  -16.2515165    8.0407776
  1597     44    2   0.00000000  -19.4519971   14.2199079   18.0863871
  1598     44    2   0.00000000   14.5849928  -16.7413758   16.1405100
  1599     44    2   0.00000000    6.0085867  -19.1827709   -0.0249118
  1600     44    2   0.00000000  -18.3239662  -11.4913844  -15.4099589
  1601     44    2   0.00000000   -9.8964802   13.1447626    9.8377211
  1602     44    2   0.00000000   -1.8336683  -11.7698338   15.4217180
  1603     44    2   0.00000000    1.6049856  -16.0106530   17.3089629
  1604     44    2   0.00000000    1.6330430   17.9920126   -0.1566032
  1605     44    2   0.00000000   -4.1471288   18.1286215  -10.3195405
  1606     44    2   0.00000000  -14.8699530   15.1439857    3.1592012
  1607     44    2   0.00000000    9.9286634   14.3001192  -13.5497530
  1608     44    2   0.00000000  -12.7061158  -10.0715587   -3.6177593
  1609     44    2   0.00000000  -11.6591744  -18.7894379   -5.9673530
  1610     44    2   0.00000000    0.9295862  -13.8175814  -12.2472460
  1611     44    2   0.00000000  -10.2360607   17.2108533   17.8338230
  1612     44    2   0.00000000   -1.0560060  -19.8237446   14.0485808
  1613     44    2   0.00000000    8.5310554  -10.2169136  -11.8229966
  1614     44    2   0.00000000  -10.8709410   16.1806993    1.9928797
  1615     44    2   0.00000000   -4.7322529  -19.3584397  -11.9153806
  1616     44    2   0.00000000  -13.4099949  -16.8487190  -15.3404764
  1617     44    2   0.00000000   -7.3638224  -11.6877234    5.6686440
  1618     44    2   0.00000000   -7.7059322   16.8279171   16.6182955
  1619     44    2   0.00000000   -7.3191519   10.0972057   16.0837845
  1620     44    2   0.00000000   -1.5979683   15.4644090   18.2638448
  1621     44    2   0.00000000    3.7426633  -13.3508092  -11.2750074
  1622     44    2   0.00000000    7.9810831   16.2873067    6.7741949
  1623     44    2   0.00000000    3.4700429   12.8166410  -12.5384189
  1624     44    2   0.00000000  -10.9333402   14.2291716   -9.0478255
  1625     44    2   0.00000000   10.1791167   18.5561130   -0.0700322
  1626     44    2   0.00000000    5.2719783   13.8042909   -1.2054041
  1627     44    2   0.00000000  -12.3493880   11.8505564  -14.6899558
  1628     44    2   0.00000000  -11.7948117   18.6120877   15.6603707
  1629     44    2   0.00000000  -11.4322469  -14.9464716  -19.8005036
  1630     44    2   0.00000000    8.0807862   10.2845199  -13.9956868
  1631     44    2   0.00000000   -5.8321738   11.6192631   11.9119177
  1632     44    2   0.00000000   -3.2055055   19.3508243  -19.6305929
  1633     44    2   0.00000000    8.4246971  -16.7125462   -1.9355953
  1634     44    2   0.00000000   19.7890268  -19.4271447    3.9334544
  1635     44    2   0.00000000  -18.4818225  -17.4522662   -5.3245849
  1636     44    2   0.00000000    4.5445119  -19.8133706  -12.4458721
  1637     44    2   0.00000000    1.6335212  -10.6202681    8.0524588
  1638     44    2   0.00000000   -8.3523561  -12.0551398    8.4207041
  1639     44    2   0.00000000   -6.7571323  -10.5227560   15.9720204
  1640     44    2   0.00000000   15.4088094   13.6510129   17.9033229
  1641     44    2   0.00000000   11.1295609   18.1472738   12.7506408
  1642     44    2   0.00000000   -0.3913540  -13.2686756   -3.1759344
  1643     44    2   0.00000000  -19.2070855   18.0487134    2.8227068
  1644     44    2   0.00000000    1.0995782   12.1608439  -19.8140060
  1645     44    2   0.00000000  -16.8452251  -14.3430400  -19.2559374
  1646     44    2   0.00000000    7.2777257   12.1874682   -6.4813868
  1647     44    2   0.00000000  -18.2832881  -12.8332171   10.7493601
  1648     44    2   0.00000000    6.3310781   13.9235582    4.2348547
  1649     44    2   0.00000000   -2.7173863  -16.8846371   -0.1656245
  1650     44    2   0.00000000    5.6870519   11.7699992   11.1483095
  1651     44    2   0.00000000  -14.9460265   16.0184400  -14.7239835
  1652     44    2   0.00000000   10.1586073   13.9510233   18.7808778
  1653     44    2   0.00000000  -13.2854006  -12.1880282   13.2818869
  1654     44    2   0.00000000   -8.0834238  -15.3856728   -0.5684008
  1655     44    2   0.00000000   -0.2329982  -15.4217723   12.8903946
  1656     44    2   0.00000000    3.3687524  -17.6545674    3.8852458
  1657     44    2   0.00000000  -19.7991107   11.7517767   -6.9151499
  1658     44    2   0.00000000   12.6350025   12.3044577  -17.4144660
  1659     44    2   0.00000000   15.1078889  -15.3240536   11.2271447
  1660     44    2   0.00000000  -17.9929084   11.1790540  -15.1086940
  1661     44    2   0.00000000   -2.9293988  -10.7143049   17.8276529
  1662     44    2   0.00000000    0.3470784   15.2359962   -2.6685292
  1663     44    2   0.00000000   17.4337637   19.5817442   -0.1043012
  1664     44    2   0.00000000   -1.1948141   10.8513513  -13.3064200
  1665     44    2   0.00000000   -8.0323180   18.0463580   -1.2019276
  1666     44    2   0.00000000   -2.0740554  -17.3351560    7.0888279
  1667     44    2   0.00000000   -0.3860480  -12.0316241   -7.6446512
  1668     44    2   0.00000000   15.1957740   18.5547237   16.1838377
  1669     44    2   0.00000000   -9.1844378  -13.0020249  -10.7726185
  1670     44    2   0.00000000   14.4337288   19.0725221    6.4336710
  1671     44    2   0.00000000  -14.1929472   13.5789253    7.6440596
  1672     44    2   0.00000000   14.6478598  -11.6690012    8.6431244
  1673     44    2   0.00000000   19.5050774   14.8671236   -1.2799945
  1674     44    2   0.00000000   14.0451642   18.3337146   18.6919143
  1675     44    2   0.00000000  -14.5386704   18.7040040   13.4192809
  1676     44    2   0.00000000   13.1627761  -19.1217001    1.3011414
  1677     44    2   0.00000000   -1.3471210   15.7941881   12.4491672
  1678     44    2   0.00000000   -3.2051666   15.0112091    1.8176247
  1679     44    2   0.00000000   19.5936555  -16.4584651   18.5071762
  1680     44    2   0.00000000  -17.0202220  -19.5773832   19.8169046
  1681     44    2   0.00000000   -7.5904305  -15.0367728  -11.7541233
  1682     44    2   0.00000000   -8.2373169  -11.9858492  -15.8037947
  1683     44    2   0.00000000    9.7326704   10.8333315   -6.4686182
  1684     44    2   0.00000000   11.2965640   19.8546562   -5.1438346
  1685     44    2   0.00000000    5.8652361  -11.9016286   12.4092594
  1686     44    2   0.00000000   -3.5718460  -10.7821464    8.4758256
  1687     44    2   0.00000000    3.9982872  -14.5326467  -18.2032240
  1688     44    2   0.00000000   -7.1667566  -12.5536000   11.0831291
  1689     44    2   0.00000000   -2.7842689   13.8125081  -19.7977084
  1690     44    2   0.00000000   19.9609175   19.7360924   -1.2875547
  1691     44    2   0.00000000   -3.9275115   19.4403079    8.8248830
  1692     44    2   0.00000000  -12.0812501   11.7649129   13.9649975
  1693     44    2   0.00000000  -13.4433804   11.0440089    8.7087948
  1694     44    2   0.00000000   -9.5728365   16.0440562   12.5846709
  1695     44    2   0.00000000  -18.2432024   17.7252056   12.0954106
  1696     44    2   0.00000000   12.8785241   18.4942878   -7.1634014
  1697     44    2   0.00000000    6.0521959   17.1999702  -16.2537681
  1698     44    2   0.00000000   18.7890037   18.2293004   12.0961097
  1699     44    2   0.00000000    6.0692703   12.4101252   -3.6589853
  1700     44    2   0.00000000   -7.7882153   14.9401067   14.5014509
  1701     44    2   0.00000000   14.9714637  -13.9257675   -9.2301447
  1702     44    2   0.00000000   -5.6134428   14.0111374   13.1123716
  1703     44    2   0.00000000   14.0020854  -17.8082918  -14.5329082
  1704     44    2   0.00000000   -2.1521445  -14.1801328  -12.7481871
  1705     44    2   0.00000000   -2.9030079  -12.8877361    3.5865503
  1706     44    2   0.00000000   16.6736659   10.0218054    8.9493681
  1707     44    2   0.00000000  -17.7515794   16.3500437   -9.4452960
  1708     44    2   0.00000000    8.8335193  -15.0649610  -17.2905043
  1709     44    2   0.00000000    2.2488025   16.6925928    8.1311930
  1710     44    2   0.00000000    1.1456177  -18.6054950  -18.3227769
  1711     44    2   0.00000000    4.2680290  -17.0997084    7.4168461
  1712     44    2   0.00000000  -18.8140345  -11.1620163   -6.1074882
  1713     44    2   0.00000000    8.0910130  -15.8022603  -12.5770334
  1714     44    2   0.00000000   -7.1310500  -16.3768825   13.6275893
  1715     44    2   0.00000000   -1.9923916   14.6146404    7.0029041
  1716     44    2   0.00000000   -4.5688471   16.3870285   -6.2058899
  1717     44    2   0.00000000  -18.1222902  -15.3328858    9.6956850
  1718     44    2   0.00000000   16.5689582   15.6781039  -13.3568074
  1719     44    2   0.00000000    1.9821059   19.5656014   -5.4353889
  1720     44    2   0.00000000    4.4194151  -19.0228360   10.6744454
  1721     44    2   0.00000000    8.6511107  -10.0381480    0.1659629
  1722     44    2   0.00000000    4.5027020   10.2615435  -10.5663398
  1723     44    2   0.00000000  -13.5621141   11.2454474  -17.1534033
  1724     44    2   0.00000000  -16.3281056  -11.9363478  -10.3796982
  1725     44    2   0.00000000  -15.9686960   11.4996407    7.4682849
  1726     44    2   0.00000000    3.8090161   15.5186561  -15.9223884
  1727     44    2   0.00000000   -9.1980146  -17.2038699  -10.5759353
  1728     44    2   0.00000000   17.7574637   15.9564297   13.4554570
  1729     44    2   0.00000000    6.6790241  -10.5991128   19.0200927
  1730     44    2   0.00000000   -7.2578069   17.4793834   -6.4821236
  1731     44    2   0.00000000   -7.9345823   17.4057841   -3.7778158
  1732     44    2   0.00000000  -14.2042959  -10.4768185    1.7280771
  1733     44    2   0.00000000   16.0145381   11.7143352    6.5666460
  1734     44    2   0.00000000   -9.9197138  -10.5832551    6.5504910
  1735     44    2   0.00000000    0.4147103  -18.6773566    3.5587265
  1736     44    2   0.00000000   14.9887667  -10.3042524   11.5243803
  1737     44    2   0.00000000  -17.2967267  -12.8310245    4.7762133
  1738     44    2   0.00000000    9.5611689   11.2341934    7.4531103
  1739     44    2   0.00000000  -16.9544046  -14.8002459   12.3672552
  1740     44    2   0.00000000   -3.9215328   10.3571086   16.7264080
  1741     44    2   0.00000000    8.0518183  -10.2485622   11.4149037
  1742     44    2   0.00000000   10.7451537  -14.1258770    9.6970320
  1743     44    2   0.00000000   15.1408824  -11.2216636   -8.9928688
  1744     44    2   0.00000000  -17.8528912  -12.5384123   16.1193667
  1745     44    2   0.00000000   17.6797234  -17.7289991    8.4316160
  1746     44    2   0.00000000  -12.0410403  -12.3845864    5.6741802
  1747     44    2   0.00000000   -9.8076736   18.6285637    2.5329151
  1748     44    2   0.00000000    4.3785383  -15.1499642  -15.4185066
  1749     44    2   0.00000000   -3.6860633  -19.1437055   14.3662741
  1750     44    2   0.00000000    0.9636950   11.7885258  -16.6811903
  1751     44    2   0.00000000    1.3898817  -11.1597245  -11.5059275
  1752     44    2   0.00000000  -16.9217772   19.6516910    2.1400553
  1753     44    2   0.00000000   15.8628839  -13.0677620    4.6854887
  1754     44    2   0.00000000   18.1531907  -19.6468897  -15.6601012
  1755     44    2   0.00000000   -7.5981285  -16.7209690  -17.1966975
  1756     44    2   0.00000000   -1.1206207   14.8438259  -10.3929985
  1757     44    2   0.00000000  -18.8535331  -17.8759594   -2.3317449
  1758     44    2   0.00000000   18.4650625  -19.0934159   16.7190797
  1759     44    2   0.00000000   -2.2529853   13.2114329  -12.2814079
  1760     44    2   0.00000000   11.2220582   13.1392906   -6.1057503
  1761     44    2   0.00000000   -3.3375945   13.2101909   17.3244732
  1762     44    2   0.00000000  -16.5276714  -11.1473520   -4.5641570
  1763     44    2   0.00000000  -14.9984942   10.8309143  -19.4551564
  1764     44    2   0.00000000    4.4315629   18.7975196   12.5484242
  1765     44    2   0.00000000   19.4756993   15.7384902   -3.9731630
  1766     44    2   0.00000000    1.6644874  -19.9744635   14.6349890
  1767     44    2   0.00000000    5.9129529   16.6994224   11.3966771
  1768     44    2   0.00000000   12.8953142   14.7301524   12.7239864
  1769     44    2   0.00000000   -1.2713630   11.0883551  -18.9963976
  1770     44    2   0.00000000    5.2759253   16.0113840    5.8941922
  1771     44    2   0.00000000  -15.5251325  -16.0261599   18.3913916
  1772     44    2   0.00000000  -18.9509466   16.2989025  -17.0695061
  1773     44    2   0.00000000    6.6537071  -13.9609318   -1.3318412
  1774     44    2   0.00000000   -1.2615092  -17.1992467   14.7741945
  1775     44    2   0.00000000   19.5042786   14.0254612    8.8583221
  1776     44    2   0.00000000   -3.7600898  -16.4049409  -13.8605945
  1777     44    2   0.00000000  -14.6477342   14.3954534   16.8873636
  1778     44    2   0.00000000    1.3341181   11.5020189  -13.8410632
  1779     44    2   0.00000000  -13.2020687   16.9282413   10.8332668
  1780     44    2   0.00000000    3.2247007  -18.5869231   16.5204263
  1781     44    2   0.00000000   19.9404254  -17.9730223   -9.2526275
  1782     44    2   0.00000000   19.4597335  -15.1966329   -9.7739957
  1783     44    2   0.00000000   -8.3216667   12.8521130   16.8391287
  1784     44    2   0.00000000   13.6025250   18.1076328  -16.7120844
  1785     44    2   0.00000000   19.1332809   12.9432950   -3.5830147
  1786     44    2   0.00000000    8.4405741   14.5966620  -18.8892324
  1787     44    2   0.00000000   19.3225811   11.6548003    2.2180782
  1788     44    2   0.00000000   17.1146141   17.8988231   -9.6378778
  1789     44    2   0.00000000   17.5758992  -17.6411867    4.3691453
  1790     44    2   0.00000000    8.8465214   16.8008399  -17.1680267
  1791     44    2   0.00000000   17.8913369   11.7749971  -11.8308924
  1792     44    2   0.00000000   -1.1865646  -12.8038687   12.9080154
  1793     44    2   0.00000000   19.8720941  -15.2175267   -5.0551727
  1794     44    2   0.00000000  -19.4454680  -18.8918886    8.7581278
  1795     44    2   0.00000000  -17.5443415  -13.7334139  -13.3298810
  1796     44    2   0.00000000  -10.3310175   11.1245871    3.7156119
  1797     44    2   0.00000000  -14.7963262  -10.1835358  -18.2680711
  1798     44    2   0.00000000   -9.6358139  -19.2460764  -12.7693378
  1799     44    2   0.00000000    0.8176654   16.0929583   16.9562529
  1800     44    2   0.00000000   13.9724716   16.7760747   -2.6003933
  1801     44    2   0.00000000   13.6722346   15.0974937   19.5610886
  1802     44    2   0.00000000   -8.6292057   10.3726959   -7.7044035
  1803     44    2   0.00000000    6.5532267  -14.2718759    5.0763856
  1804     44    2   0.00000000   -3.3712027  -10.2900881  -19.2356645
  1805     44    2   0.00000000   -1.1061269  -19.6697773   -8.6352472
  1806     44    2   0.00000000  -11.2352410  -11.9393952    8.4959106
  1807     44    2   0.00000000   15.0269176  -15.2365501  -14.5803878
  1808     44    2   0.00000000   -9.0981842  -18.4654158   -5.1134998
  1809     44    2   0.00000000    9.9945110  -17.2058670   13.5645769
  1810     44    2   0.00000000   -0.3212054   15.8150110    4.2252414
  1811     44    2   0.00000000  -17.8184573   15.5053859    2.2607893
  1812     44    2   0.00000000   -2.2444270  -14.3870696   -1.3605127
  1813     44    2   0.00000000   -0.0785145   18.6690268   16.3401055
  1814     44    2   0.00000000   19.1311733  -11.1507325    1.5424687
  1815     44    2   0.00000000   11.5563622  -14.2670312  -17.1254209
  1816     44    2   0.00000000   -3.2866007  -19.8064786    6.3116235
  1817     44    2   0.00000000  -19.1409847   18.8883462    7.1279575
  1818     44    2   0.00000000  -15.7099100   11.1722831   -3.8602542
  1819     44    2   0.00000000  -11.3547911  -16.3001114   15.6575673
  1820     44    2   0.00000000   13.9669504   16.1353505   16.9251042
  1821     44    2   0.00000000   13.6876965  -19.2077350   -8.8282585
  1822     44    2   0.00000000   10.3906150  -13.2733345  -14.8032277
  1823     44    2   0.00000000  -14.0633384   13.6992909  -16.1423393
  1824     44    2   0.00000000  -17.6056675  -10.2285018    5.7310062
  1825     44    2   0.00000000   -7.1466753  -10.3069680    3.2553261
  1826     44    2   0.00000000  -10.9828726  -12.7008235  -15.5268797
  1827     44    2   0.00000000    6.2058668   18.6741100   -8.7547941
  1828     44    2   0.00000000    0.3287969   12.9079958   -0.8278087
  1829     44    2   0.00000000  -15.4525350   18.9019954  -18.3380855
  1830     44    2   0.00000000    3.2391780   11.6665114   -4.0987701
  1831     44    2   0.00000000  -14.0464357   12.7467062   -5.7914239
  1832     44    2   0.00000000    6.1273112   10.0939080    4.2473251
  1833     44    2   0.00000000   14.5079303  -16.2965194   -4.9471733
  1834     44    2   0.00000000   12.8011578  -16.2778825   18.2920146
  1835     44    2   0.00000000  -18.4717048  -18.5709359    6.1824399
  1836     44    2   0.00000000    7.7762455   13.7627454   16.9426066
  1837     44    2   0.00000000   11.9401037   17.3514071   -4.4258224
  1838     44    2   0.00000000   -7.2158628   16.9534918  -14.1839897
  1839     44    2   0.00000000   16.9471614   19.9201461   -5.2370108
  1840     44    2   0.00000000   18.5462036   17.1749222  -11.9692935
  1841     44    2   0.00000000   19.1965346  -13.2387852   13.9596543
  1842     44    2   0.00000000   -4.0578192  -17.3691059    5.2203133
  1843     44    2   0.00000000    3.1203244   17.5617122  -12.2242439
  1844     44    2   0.00000000  -11.5597745  -16.3496516    2.6399572
  1845     44    2   0.00000000  -13.8403026   13.9034344   -3.2720427
  1846     44    2   0.00000000    5.8820250  -14.4373596    1.2313864
  1847     44    2   0.00000000    1.9820392   19.9560840  -13.5525605
  1848     44    2   0.00000000  -13.0787241   18.4576307   -1.5529185
  1849     44    2   0.00000000   -8.2784547   16.3674213    3.2440200
  1850     44    2   0.00000000    1.6068604  -15.6403733  -14.9332403
  1851     44    2   0.00000000    2.8179474  -10.2827170   16.5963565
  1852     44    2   0.00000000   10.4166574  -19.1227854    1.4408552
  1853     44    2   0.00000000   16.0658243   16.3413834   18.6122300
  1854     44    2   0.00000000   18.8328502  -10.8623063   -7.7927904
  1855     44    2   0.00000000   16.3107206  -17.7705358   -0.1149894
  1856     44    2   0.00000000   17.5735092  -15.0300801  -13.5625556
  1857     44    2   0.00000000   12.4854994   18.2267964  -11.9988231
  1858     44    2   0.00000000   -3.9010132   10.5548374  -10.0257778
  1859     44    2   0.00000000   -8.8875543   11.6789729    7.6091662
  1860     44    2   0.00000000    1.9166579  -12.8513745   17.1798536
  1861     44    2   0.00000000  -12.7805757  -12.9246081   10.5013190
  1862     44    2   0.00000000    8.4000206  -18.4868036  -13.9319670
  1863     44    2   0.00000000   15.7880411   10.6005367   -5.1589691
  1864     44    2   0.00000000    4.7549221   14.9135011   -3.7176454
  1865     44    2   0.00000000   18.1208830   13.1022251   17.3761023
  1866     44    2   0.00000000   18.9861010   18.4491516   -6.2698540
  1867     44    2   0.00000000  -15.5156087  -13.5116555   17.3989978
  1868     44    2   0.00000000   -1.1739477  -12.7296178    1.3562651
  1869     44    2   0.00000000   19.7620366   16.6015589  -14.4702839
  1870     44    2   0.00000000   -7.6295377  -12.8344421   -8.5740625
  1871     44    2   0.00000000   14.2569817   18.2637276   -9.8560893
  1872     44    2   0.00000000   16.1677422  -10.6659451   -1.9894831
  1873     44    2   0.00000000   11.4356696  -17.2052922   -9.3034011
  1874     44    2   0.00000000  -12.1962663   14.2073996    3.4238884
  1875     44    2   0.00000000  -18.5348099  -19.5257334   14.8668217
  1876     44    2   0.00000000   11.6249666  -19.1596428   -1.1050880
  1877     44    2   0.00000000   -5.8254543   19.1734312   -8.2076803
  1878     44    2   0.00000000    8.2251281   19.1755711  -18.8298906
  1879     44    2   0.00000000  -13.6938806  -13.3331947  -14.9727880
  1880     44    2   0.00000000   -1.1102509  -10.4572800   -3.5139638
  1881     44    2   0.00000000    3.0268554   12.9306697  -15.2629463
  1882     44    2   0.00000000   11.2228213  -10.3183084   -9.8660752
  1883     44    2   0.00000000   -0.4057367   13.8266846    1.7246518
  1884     44    2   0.00000000  -19.3480874   18.5689289    9.8106782
  1885     44    2   0.00000000  -11.2204939  -10.6910085   14.7973758
  1886     44    2   0.00000000   -4.1814575  -19.1016456   -1.2416767
  1887     44    2   0.00000000    8.7279295   17.5519402    1.9146415
  1888     44    2   0.00000000    5.9778908   11.8638255  -12.4726147
  1889     44    2   0.00000000   13.4102931   13.8424139  -10.2294304
  1890     44    2   0.00000000   -9.7069007  -13.5386191  -17.7947289
  1891     44    2   0.00000000   -7.8502260   12.5399735  -11.9239840
  1892     44    2   0.00000000    5.1139311  -14.4339864   14.0050122
  1893     44    2   0.00000000  -13.0595619  -17.5823843    0.6387561
  1894     44    2   0.00000000   -8.2725042   19.0361283  -15.7796879
  1895     44    2   0.00000000  -19.9052426  -11.6891583  -19.1956094
  1896     44    2   0.00000000  -17.2571938   11.2759403   12.2296934
  1897     44    2   0.00000000    1.7185119   17.3196762   -9.0997870
  1898     44    2   0.00000000  -12.1384908   17.2171096   -5.8376685
  1899     44    2   0.00000000   -0.6987774   10.8567207    4.2118764
  1900     44    2   0.00000000  -12.4212244   19.3925580   11.8861619
  1901     44    2   0.00000000   -5.4253960   12.5895271  -18.9068410
  1902     44    2   0.00000000   10.5291604  -16.9059276   10.5599726
  1903     44    2   0.00000000   16.2250400   14.6656173    5.6961049
  1904     44    2   0.00000000  -14.5366421   11.8075924   12.7159948
  1905     44    2   0.00000000    5.8510476  -17.3886518  -12.7604727
  1906     44    2   0.00000000    8.9719872  -16.7270622   -7.6687987
  1907     44    2   0.00000000   17.6524563  -11.5507344   19.4368263
  1908     44    2   0.00000000   -5.5207601   16.0698870    5.8899030
  1909     44    2   0.00000000    7.4094515   11.9747265  -17.4756036
  1910     44    2   0.00000000    7.6345335  -13.2459459  -19.3136837
  1911     44    2   0.00000000  -18.8711654   13.9260710   -5.4705003
  1912     44    2   0.00000000    4.2341976  -14.2758093    7.3159740
  1913     44    2   0.00000000   -7.5945865   16.7567522  -17.0621485
  1914     44    2   0.00000000   -8.7649344  -15.6510402   -4.0694293
  1915     44    2   0.00000000    9.8025943   15.4908034   -4.5146993
  1916     44    2   0.00000000   17.4242249   11.5706426   -7.0473611
  1917     44    2   0.00000000  -10.7398289  -19.5907486    7.1490424
  1918     44    2   0.00000000   -1.3730256   11.0764868   -2.1724464
  1919     44    2   0.00000000    5.5689558   13.7537844    1.5350993
  1920     44    2   0.00000000   -1.0653701   14.1703244   10.2639890
  1921     44    2   0.00000000   17.9524664  -15.1786742   -0.5427837
  1922     44    2   0.00000000    8.8193282  -17.0640184   16.5369894
  1923     44    2   0.00000000   -5.1087365   11.1338512    3.8902438
  1924     44    2   0.00000000   -8.3553795   15.6091430    9.8260914
  1925     44    2   0.00000000   16.3417568  -12.7818351   -6.9504814
  1926     44    2   0.00000000   16.3718463  -19.0963160   14.9921461
  1927     44    2   0.00000000    1.7686229  -13.6803301    3.5525900
  1928     44    2   0.00000000   -4.5767217   18.4132396    1.8085587
  1929     44    2   0.00000000  -11.6687877  -19.1454813   -1.4171520
  1930     44    2   0.00000000  -14.8262782  -17.6970812  -13.0818764
  1931     44    2   0.00000000   18.3972730   13.6605064   -8.5332347
  1932     44    2   0.00000000   12.4676666   11.6772226    3.6025493
  1933     44    2   0.00000000  -14.2106240  -14.2046927   -1.8918631
  1934     44    2   0.00000000  -10.9696486   15.6222823   10.2378219
  1935     44    2   0.00000000    9.9126642  -10.3225938   13.9812980
  1936     44    2   0.00000000   15.0333513  -12.2126073   15.5130615
  1937     44    2   0.00000000   13.6235156  -16.3330160    1.6783175
  1938     44    2   0.00000000  -12.2300816   16.8798829   13.3582738
  1939     44    2   0.00000000   -6.1736137   11.7258541   -8.9647717
  1940     44    2   0.00000000   13.0058588  -12.2603118  -18.8641501
  1941     44    2   0.00000000   11.6219474  -17.3393761   16.0149429
  1942     44    2   0.00000000   17.7670712   17.8269296   15.5069607
  1943     44    2   0.00000000   12.3077501   18.2248915    8.0535332
  1944     44    2   0.00000000  -11.2303199   13.1753464   -2.2223233
  1945     44    2   0.00000000  -12.1246126   11.3367004   -7.5911105
  1946     44    2   0.00000000    4.6856876   11.6220655    8.5382098
  1947     44    2   0.00000000  -15.4049893  -10.6329666   14.7416839
  1948     44    2   0.00000000   -0.8990035  -16.2311842  -13.9594211
  1949     44    2   0.00000000    9.3761675  -19.1633660   -9.7582090
  1950     44    2   0.00000000   -1.5901440   11.4055905   15.8774133
  1951     44    2   0.00000000   -5.1799782  -12.1743620   -6.3845243
  1952     44    2   0.00000000    1.8833121  -18.2316049    6.1072345
  1953     44    2   0.00000000    8.5641757  -19.1303673    9.2654082
  1954     44    2   0.00000000    1.4551123   14.2605123   11.9832870
  1955     44    2   0.00000000    1.2622813  -11.0732053  -14.4040939
