LAMMPS data file via write_data, version 10 Sep 2025, timestep = 100000, units = real

5 atoms
1 atom types

-20 20 xlo xhi
-20 20 ylo yhi
-20 20 zlo zhi

Masses

1 10

Atoms # full

1 0 1 0 -13.231542974683933 3.105482546780829 -3.3056736538729545 0 0 0
2 0 1 0 2.993282795840767 -15.524584445172374 14.926846562236326 0 0 0
6 0 1 0 1.3325204909954342 18.325033980614272 -16.75422021829424 0 0 0
5 0 1 0 -17.751025634941847 -18.521206328068292 3.1689624889548784 0 0 0
7 0 1 0 11.04808117699882 14.134710358564487 18.881904016873133 0 0 0

Velocities

1 -0.02512504063714201 -0.008381151919463627 -0.00895181053759437
2 0.011796785728798198 0.003046902407112229 0.002590607181645446
6 -0.0004568047302135773 -0.0012424954580850128 -0.003647517023141655
5 0.0030535407050907115 0.010095224417607894 -0.0011446371858582246
7 -0.0022973725663212445 -0.002322989366503792 0.0025528359631875916
